#LAMMPS input script that evaluates a system's energy, pressure and atomic forces without relaxing

box tilt large

<atomman_system_pair_info>

variable peatom equal pe/atoms

thermo_style custom step lx ly lz pxx pyy pzz pe v_peatom
thermo_modify format float %.13e

fix nve all nve

<dump_lines>
run 0