#LAMMPS input script that performs an energy minimization
#for a system with a stacking fault

<atomman_system_info>

<atomman_pair_info>

<fix_cut_setforce>

thermo_style custom step lx ly lz pxx pyy pzz pe
thermo_modify format float %.13e

compute peatom all pe/atom 

min_modify dmax <dmax>

dump dumpit all custom <maxeval> <sim_directory>*.dump id type x y z c_peatom
dump_modify dumpit format <dump_modify_format>

minimize <etol> <ftol> <maxiter> <maxeval>