#LAMMPS input script for relaxing a dislocation monopole

#Script and atom data file prepared by AtomMan package

units metal
atom_style atomic
boundary p p p 
read_data disl.dat

mass 1 55.847000
mass 2 55.847000

pair_style eam/alloy
pair_coeff * * C:\Users\lmh1\Documents\iprPy\reference-libraries\potentials\2006--Chamati-M--Fe\Fe_cham-mishin.eam.alloy Fe Fe


variable anneal_temp equal 100.0
variable two_temp equal 2*${anneal_temp}

group move type 1
group hold subtract all move

compute peatom all pe/atom

dump first all custom 100000 atom.* id type x y z c_peatom
dump_modify first format "%d %d %.13e %.13e %.13e %.13e"
thermo_style custom step pe

velocity move create ${two_temp} 9467 mom yes rot yes dist gaussian
fix nomove hold setforce 0.0 0.0 0.0
timestep 0.001
thermo 10000
fix 1 all nvt temp ${anneal_temp} ${anneal_temp} 0.1

run 10000
    
minimize 0.0 9.9999999999999995e-07 100000 100000