#LAMMPS input script that evaluates a system's energy without relaxing

<atomman_system_pair_info>

thermo_style custom step pe
thermo_modify format float %.13e

run 0