ITEM: TIMESTEP
420000
ITEM: NUMBER OF ATOMS
500
ITEM: BOX BOUNDS xy xz yz pp pp pp
-8.1405392900688767e-02 1.7564840583852330e+01 -2.9236230718967249e-02
-7.8153478863908887e-02 1.7597726745475654e+01 1.2671421670647142e-02
-5.4935627263830611e-02 1.7554935627262182e+01 1.9573266610463668e-02
ITEM: ATOMS id type xu yu zu c_pe c_ke vx vy vz 
249 1 7.07037775036597704e+00 6.97545008657657561e+00 6.97911743157498066e+00 -4.43766831875321888e+00 3.98048584347001910e-02 -2.00735868232947690e+00 -8.18285863385625922e-01 2.89554136564863196e+00 
245 1 3.46265746913287042e+00 6.97212640925725768e+00 6.92419144596374814e+00 -4.43509288647787159e+00 6.03960058799293733e-03 6.09918833459894394e-01 3.76544088548894096e-01 1.21298669920970315e+00 
250 1 6.93852209230020556e+00 8.77681484125273492e+00 8.76557486831354105e+00 -4.43238976714282273e+00 1.31918336290924067e-02 1.96023270757276502e+00 5.36753607025400425e-01 -4.53138703232927487e-01 
101 1 -7.60794880887575437e-02 -1.16271623714896605e-01 3.49551663635561249e+00 -4.43056120583507074e+00 1.88898246704416184e-02 -1.47678000727875652e-01 -1.63448794977091150e+00 -1.87494883574995108e+00 
107 1 5.24896854970696936e+00 -3.39537406942343675e-02 5.20563883160518071e+00 -4.44692044843122414e+00 1.09312920610714417e-02 -7.59318079646094657e-01 1.65613741398937386e+00 -5.23059563211116796e-01 
6 1 3.44372975443763885e+00 1.67935945121082719e+00 1.70297326914411795e+00 -4.43871042150075112e+00 1.18819032609109344e-02 1.85415354187537140e+00 -4.48147063402506429e-01 5.16407220067086170e-01 
51 1 8.75684476862489625e+00 6.98417293133996342e+00 1.73681803152547665e+00 -4.44576698089821587e+00 3.44143909307789925e-03 -2.61125821788738000e-01 6.03947658000013377e-01 -8.35588569436107376e-01 
144 1 1.69634693944306525e+00 8.71500470028887975e+00 3.48551855359848917e+00 -4.43149916520738163e+00 2.45545048435803492e-02 -5.93577910389085361e-01 -1.67455283578177738e+00 -2.21680479163855937e+00 
228 1 5.24246077439443958e+00 5.25150530469745647e+00 6.97430852806087387e+00 -4.43953949012696203e+00 2.35909908338125425e-02 -5.46229479780625526e-01 -2.41766875066910680e+00 1.26905652197949470e+00 
10 1 7.02175914593710537e+00 1.65785511036304989e+00 1.75212856807196227e+00 -4.41972054204830744e+00 6.48541881452001975e-03 -1.04262853563282132e+00 4.62899237620227999e-01 9.11211690448007205e-01 
146 1 3.45967120844906795e+00 8.70072606794353831e+00 5.20004216666117092e+00 -4.42400029051822852e+00 3.29086384358977316e-02 2.77474729376546581e+00 1.62742804713110423e+00 -6.84700768472128685e-01 
212 1 8.76308792982321627e+00 1.67273947949857416e+00 6.99436299345949219e+00 -4.43959994826763893e+00 4.78464212476483863e-03 6.08985597275140678e-01 -4.39105041200226642e-01 -1.00447053847277390e+00 
23 1 1.68176880599844147e+00 3.45929304809438376e+00 1.66917776249659489e+00 -4.44332315281885570e+00 3.40523423187703914e-02 -1.11552817622056288e+00 -1.56712917867360502e+00 2.73718477859723963e+00 
3 1 1.66806553529980461e+00 -4.21131297987759542e-02 1.69391678715107141e+00 -4.43594947717426358e+00 4.28804397207272203e-02 -2.00928423060282491e+00 5.21120424234389423e-01 3.12815388837541919e+00 
225 1 3.46986383860069925e+00 3.51342606008289504e+00 7.02975698399129545e+00 -4.45085045445320304e+00 3.66520477563295937e-03 -6.85080403305551644e-01 -3.09956606899842779e-01 7.99554740213399895e-01 
26 1 3.45867805982616261e+00 5.21826025815189620e+00 1.67853641449406843e+00 -4.44046741013116986e+00 2.15793051151061399e-03 -2.15932774734850758e-01 3.50483140297603524e-01 -7.34719633820355211e-01 
27 1 5.23200419800250405e+00 3.45687588924674571e+00 1.69063546842310153e+00 -4.43909608220681395e+00 5.58788421903619152e-03 9.68594118872697848e-03 -1.26390297836096899e+00 4.88985108605599850e-01 
151 1 8.82216678454995851e+00 6.95997221007534606e+00 5.16096320233437833e+00 -4.42827839018574299e+00 4.60696420183231911e-02 -1.48598216555393070e+00 3.18606872591872120e-02 3.59627858535760403e+00 
44 1 1.68266640583693317e+00 8.74164112355122924e+00 -1.03785308990709563e-01 -4.44216835106126062e+00 1.56421194208186988e-02 2.96529698009926845e-01 1.01612565621624212e-01 -2.24567749222135227e+00 
30 1 6.99640478660798504e+00 5.23082707913505285e+00 1.68516339904533186e+00 -4.44110874572535774e+00 4.60982241636350640e-02 -2.27320833477119599e+00 -1.57470771331550141e+00 2.73945099537262271e+00 
149 1 6.98804523554355494e+00 6.97504382904657572e+00 3.45652216015693048e+00 -4.44396977256547920e+00 2.11649798531252688e-02 1.67004696146167420e+00 -2.77951480915954952e-01 2.02244584011202377e+00 
43 1 1.70314447766868171e+00 7.02197279314172285e+00 1.66158187812714653e+00 -4.44004444277798527e+00 8.30982051678542943e-03 2.36932766642577036e-01 -7.28615558956805076e-01 -1.46433996230602848e+00 
122 1 -9.58279612672014586e-03 5.24780193008961326e+00 5.24020189808236747e+00 -4.44309179546610356e+00 1.86697119170588025e-02 1.02621674593559886e+00 2.04115908188228312e+00 -9.57597998433696196e-01 
47 1 5.22361804043141742e+00 6.93857509680253326e+00 1.73761542983110928e+00 -4.43351970199288115e+00 2.88529904741969545e-02 1.43613330063940681e+00 2.08249784112530500e+00 -1.75620470111575000e+00 
224 1 1.69784073964854043e+00 5.24687647878162267e+00 7.01750154936217818e+00 -4.44935024146623093e+00 1.46111096104666188e-02 -1.36392164250180681e+00 -1.32724513660160803e+00 1.08654660249512314e+00 
147 1 5.27979078035247618e+00 6.98820432714696160e+00 5.25911721435392554e+00 -4.44270670881865914e+00 7.22289397012089787e-03 5.43152646587087284e-01 1.41423321153174042e+00 -2.81039141732575937e-01 
103 1 1.75347222607298558e+00 -6.73796575947660792e-02 5.24748467581608935e+00 -4.44273694036995348e+00 1.95841671760615572e-02 -2.52870516446295746e+00 -1.08304893226737656e-01 -1.75876817235672667e-01 
230 1 6.95348900488979105e+00 5.14873617485197066e+00 8.78686493283576553e+00 -4.42501827173295492e+00 1.04634374746939655e-02 6.65618688307861972e-01 1.41015736712218409e+00 -1.00378174544942844e+00 
104 1 1.66402858381743024e+00 1.71553835093991203e+00 3.44501080621944222e+00 -4.43592285145730347e+00 6.50230572617548942e-03 -8.11720283150594191e-01 -7.80258273381469247e-01 -9.32477553272710424e-01 
247 1 5.24747305990987112e+00 6.96295647300147635e+00 8.70013121442639026e+00 -4.43616013129553810e+00 1.44784479813609701e-02 -2.12345107211146411e+00 4.71400064379814743e-01 1.66069623527325017e-01 
106 1 3.42165799435057938e+00 1.72450762887061115e+00 5.22809392270910944e+00 -4.43910506965356610e+00 5.64884225899814872e-03 -5.22556676430503186e-01 -1.14575340496625699e+00 5.20452313947180834e-01 
145 1 3.47588402646681827e+00 7.02005171795434268e+00 3.47658843906462867e+00 -4.44017335259778445e+00 3.51609662276786139e-03 -8.94333958443951582e-01 -5.62638779920150989e-01 1.98219256205517252e-01 
108 1 5.30974542761493318e+00 1.69508823250656149e+00 3.45818852439794222e+00 -4.43599582592046104e+00 2.53504638146356681e-02 -1.29591973846010844e-01 -4.46255468098250785e-01 -2.84892379373696025e+00 
229 1 6.97035293955247059e+00 3.39864127934986593e+00 6.99053781076257508e+00 -4.43259487213614722e+00 3.06174533160988964e-02 -2.98193079459380384e+00 4.22647722612759513e-01 -9.96463904555536573e-01 
110 1 7.01927055732283645e+00 1.72497516320015687e+00 5.22950348386444208e+00 -4.43151047913252860e+00 1.26288989530365489e-03 -5.28508901578796264e-01 2.41427164864385951e-01 2.78358784351469102e-01 
143 1 1.72704538490984105e+00 6.98614864162611138e+00 5.20901542284254226e+00 -4.42403175453367936e+00 1.74816192884319280e-02 2.23473984468695530e+00 2.81591671324411597e-01 -8.20110630478374847e-01 
208 1 5.21748387112767897e+00 1.66444694605188070e+00 6.98817682524153927e+00 -4.43897880483339247e+00 5.03642215957121869e-03 1.25331624880293213e+00 2.77482141317120568e-01 -8.71550167053287833e-02 
123 1 1.75221192862763675e+00 3.47752954310486073e+00 5.21596136238710528e+00 -4.44161589953292069e+00 1.09661789426898706e-02 1.75701288246965237e-01 1.29270044537672635e+00 -1.37929974270246825e+00 
124 1 1.72356442860501025e+00 5.22005121495047320e+00 3.47862625460993957e+00 -4.45313627222030561e+00 2.18285595771268055e-02 1.63130423616209819e+00 -9.73395137013051803e-01 1.88840086551926278e+00 
125 1 3.50102522916455072e+00 3.43681715929322218e+00 3.44347221196995701e+00 -4.43009899665510609e+00 6.69849681800207923e-03 1.40948468711165620e+00 3.66913897778342254e-02 -4.62275686607513281e-01 
126 1 3.48094033519490242e+00 5.24146533172540430e+00 5.20900886102046190e+00 -4.43540588975453076e+00 2.92949621634662864e-02 -1.79201195197824792e-01 2.01545464055076096e+00 -2.35257940139044885e+00 
127 1 5.15901269143566843e+00 3.51522631946007813e+00 5.17814644703956262e+00 -4.42362295849506459e+00 4.89314584372160799e-03 7.15621672395921893e-01 -4.37530434860330830e-01 9.51185570717711482e-01 
128 1 5.20915735522878798e+00 5.27105143682154154e+00 3.47298604831691815e+00 -4.43740936869582203e+00 3.92918496405491521e-02 2.02752937312104375e+00 2.19356597019936794e+00 1.99800284402774930e+00 
129 1 7.01438313436588956e+00 3.52694659793708709e+00 3.39164104404686606e+00 -4.43114678472013868e+00 2.14350200880520404e-02 -1.31451696818051733e+00 -1.65374063114338288e+00 1.60703023097942133e+00 
130 1 7.00747407758448304e+00 5.17703782796259215e+00 5.21345896337472414e+00 -4.44612294010141706e+00 2.54300791636495153e-02 -4.25634033058143679e-01 1.48030203561021567e+00 2.44663333794642934e+00 
204 1 1.75459224228687138e+00 1.74016853403390148e+00 7.05100445599538794e+00 -4.42392014428074187e+00 1.84139993014117223e-02 1.05979535165605809e+00 2.08290560437380456e+00 -7.68592488653336847e-01 
24 1 1.65432074649405303e+00 5.20955439111383090e+00 -4.07630193675289215e-02 -4.43361614547539329e+00 3.88925256779365123e-03 -6.78690973370471240e-01 -8.95350826706190150e-01 1.26738070691955196e-01 
141 1 -6.94183490154084148e-02 6.99348152073163920e+00 3.50040319982650372e+00 -4.44084404044658410e+00 1.62818996679478765e-02 -2.36596568910219379e-02 -1.26698823574121183e-01 2.30976099647604283e+00 
132 1 8.77148422546001960e+00 5.25133383858140235e+00 3.46226558569866372e+00 -4.42884377443041277e+00 6.06959170274449459e-03 -1.00471244693059836e+00 -2.17040872079372615e-01 9.68724388156400384e-01 
46 1 3.46846115175383396e+00 8.74758755246399922e+00 1.68747553433699715e+00 -4.45313915811595429e+00 1.14146826167652090e-02 -1.61121338439039929e+00 -9.66131678605528621e-01 -4.71604055096008778e-01 
2 1 -6.37658531829231878e-02 1.66664275410387819e+00 1.64580089780502403e+00 -4.43732561323274943e+00 1.49777596751851910e-02 2.17898930623963399e-01 -1.52845385588361604e+00 1.59352015445194373e+00 
45 1 3.44790929521927936e+00 6.93645651066084579e+00 -5.28451018422931296e-02 -4.44230015140053869e+00 7.59286603135442273e-03 -1.41365041606841801e+00 -6.17859380904479671e-01 -3.39852535556220692e-01 
207 1 5.26425627279990849e+00 -1.91403015527552567e-02 8.71499437276854572e+00 -4.43391149009241214e+00 1.03671879988119029e-02 7.67797486645213967e-01 -1.49720111957502922e+00 -7.59216665973564964e-01 
210 1 6.98360057305750814e+00 1.72470009625782716e+00 8.78213397277922958e+00 -4.44687028824784480e+00 2.01350235095391124e-03 -5.45617462263998987e-01 -1.36643738167469220e-01 -5.87738980764056285e-01 
223 1 1.73780530990699877e+00 3.49930779258361113e+00 8.78353584997843129e+00 -4.43709723243124454e+00 3.25166680515977941e-02 -2.56491471458837372e+00 -1.15574279795039447e+00 -1.66529163600238306e+00 
8 1 5.25878761738445988e+00 1.72794400237667434e+00 -7.32134478210493544e-02 -4.44244276537136340e+00 3.49925850777070221e-04 2.01434884516502072e-01 2.46955267179450710e-01 -1.15984009653305298e-01 
243 1 1.69880116314189711e+00 7.01000276895514496e+00 8.72680038382287648e+00 -4.43962946682066484e+00 8.86467575380773740e-03 2.43185410796538451e-02 1.70290503181848774e+00 -1.14911606667792432e-01 
449 1 6.96045348954759913e+00 6.94267367291962767e+00 1.40397614455464250e+01 -4.43511910188994829e+00 2.50709377956343203e-02 -1.03030139643326690e-02 1.70600363439768965e+00 2.30865206981131488e+00 
307 1 5.22607270061631723e+00 -7.92879947609364116e-02 1.22868423404509279e+01 -4.43584876342586210e+00 6.26189623928646681e-03 -2.39627180454654642e-01 3.98777844451187330e-02 1.41392251578702388e+00 
48 1 5.17519701365708507e+00 8.73497597138703519e+00 -6.62887735643487019e-02 -4.44521771603593763e+00 1.43102095724753006e-02 -1.78160521013499240e+00 -4.84018526306696784e-01 -1.13804796842946354e+00 
451 1 8.74156607270915131e+00 7.02313702122841832e+00 1.57739809331736467e+01 -4.42680347331594604e+00 2.12379472390672591e-02 5.89706594463209721e-01 -1.81623222200052759e+00 1.82596028248295239e+00 
32 1 8.78777242804717318e+00 5.26699476622870577e+00 -7.68472008303575649e-02 -4.44959074955824097e+00 1.42872315804973941e-02 1.23965440379453984e+00 -1.02405928694708526e+00 -1.45277364477252702e+00 
9 1 6.99637846391121965e+00 -1.56713758055562646e-01 -7.37593996148433462e-02 -4.44286061777076213e+00 4.73875861107118674e-03 -2.09625259994647678e-01 9.88997886642627888e-01 -7.31776596973793714e-01 
348 1 5.25310863910310299e+00 8.78531840395854502e+00 1.04936403243632199e+01 -4.43416299828086569e+00 1.13784503975936785e-02 -2.50646022813293123e-02 1.04758443456134498e+00 -1.62537965539125251e+00 
431 1 8.71305552985718279e+00 3.45825175954624475e+00 1.58000355716962986e+01 -4.44022609444215277e+00 4.83037956922621539e-02 2.23953408556811429e+00 3.28677751098863880e+00 2.41433519032350080e-01 
422 1 -2.79032256251072995e-02 5.23577533670277706e+00 1.57445725123683289e+01 -4.44824486127106056e+00 1.29225034510769437e-03 -8.20944888220730140e-02 -3.65587405057842887e-02 -6.45497193096322697e-01 
5 1 3.50523309717736353e+00 -9.55502714420664312e-02 4.78687174032543794e-03 -4.44701805420681495e+00 1.56703660795534279e-02 -8.95994411967339088e-01 7.25841567449283520e-01 -1.95472623307359505e+00 
332 1 8.69435302615133665e+00 5.25876330000428460e+00 1.05381525530322779e+01 -4.44416123760583570e+00 1.62696083669601060e-02 -8.57004302869989742e-01 -3.10193358270611841e-01 -2.12529809137270709e+00 
222 1 -1.27054752157187562e-02 5.25825892418279128e+00 8.80467649223566973e+00 -4.44386990760159151e+00 3.58256112659115569e-02 9.77282605525202852e-01 1.31651872910890422e+00 3.01446855491242083e+00 
1 1 -1.04128162652470824e-01 -9.79940073212246382e-02 -7.74899156871633465e-02 -4.43654313411914636e+00 1.65026266647600034e-02 1.38077507316821069e+00 4.56520315979283886e-01 1.81912263895264203e+00 
49 1 6.99787197129356819e+00 6.94726542459572194e+00 -8.31083485384311871e-02 -4.44963561971096766e+00 1.80287678202229514e-03 -3.13464317022621675e-01 -2.19485993387821626e-01 6.67939888259787340e-01 
444 1 1.67110878015283459e+00 8.75902600620098504e+00 1.39686615271284840e+01 -4.43468421456512996e+00 2.37007266172966106e-03 -4.41300980399553858e-02 7.34708582354245410e-01 -4.87095480936376279e-01 
304 1 1.65765451169545375e+00 1.71616574871444350e+00 1.05185763733495712e+01 -4.42569617775975388e+00 2.21911718124779660e-02 1.98610811885258620e+00 1.70934243630778004e+00 -6.53771698327963668e-01 
450 1 7.03218417745299806e+00 8.77432182740540156e+00 1.57365673784630076e+01 -4.41923682602060364e+00 9.77361284175453510e-03 3.54557418381549805e-01 7.59540143482135832e-01 1.58424207937425066e+00 
306 1 3.42383425816147824e+00 1.70941731907319694e+00 1.22108285720873901e+01 -4.44072387620324260e+00 1.24019167414566762e-02 -4.91532639790638770e-01 -1.18533442418626711e+00 1.55874818610946209e+00 
331 1 8.71714609839288102e+00 3.40714277745203109e+00 1.22679954795138002e+01 -4.42487643505794281e+00 2.42382739747706768e-03 2.94163777708256358e-01 -8.41538033332067226e-01 -4.42259365640498836e-02 
308 1 5.22282453723177209e+00 1.66698799296381317e+00 1.05228974461348344e+01 -4.43596215493336210e+00 5.92456795127339897e-03 -5.50588618724656031e-01 1.13241331093818176e+00 6.01503106118585262e-01 
426 1 3.46005582861465877e+00 5.23810268748366425e+00 1.57904686994969587e+01 -4.45416075678664480e+00 1.68948032720694918e-02 2.01665928244396930e+00 2.59262627198121487e-01 -1.19118780309525718e+00 
310 1 6.94232888259744385e+00 1.70270353764299176e+00 1.22416253143688447e+01 -4.42328694557481583e+00 6.30681826512303600e-03 1.05152775475474591e+00 -2.15359938030845771e-01 9.59616046200671646e-01 
206 1 3.46754828206261578e+00 1.71707466833088107e+00 8.79585251382248323e+00 -4.44882599034570703e+00 8.60506656173789380e-03 -1.17560262025509599e+00 -1.16206274987310709e+00 -3.09710736679729037e-01 
405 1 3.41956130039797657e+00 -8.53400983664174689e-02 1.40385370874082085e+01 -4.44024593176508819e+00 3.16024216790735876e-02 -1.95355276624019858e+00 -1.57309648271419134e+00 -2.02391342815773623e+00 
323 1 1.68195387015722186e+00 3.46914867486671774e+00 1.22526370090081311e+01 -4.45073518482285202e+00 2.36241356191112207e-03 4.58908163047311080e-01 -2.21355509651967541e-01 7.18953254977398371e-01 
324 1 1.70345603596199457e+00 5.27994820804849763e+00 1.05480204941702969e+01 -4.44624251414887262e+00 1.95101573776652326e-02 -1.34763549163905827e+00 -1.77761547274569165e+00 -1.19860266637738166e+00 
325 1 3.43359164976790243e+00 3.47950729088436894e+00 1.05150431597456659e+01 -4.43986233549432452e+00 1.19057731042730274e-02 1.59470834861001731e+00 -3.64952527966537876e-01 -1.11218620168678783e+00 
326 1 3.46312125820626360e+00 5.30108837371472763e+00 1.23069952540024037e+01 -4.43416478621068766e+00 9.31604608851101419e-03 -5.32554463097411279e-01 1.19948180075796618e+00 -1.15744080084095380e+00 
327 1 5.16874029950210367e+00 3.51232447882942012e+00 1.22367293920465983e+01 -4.44058623878270531e+00 6.57055270386180251e-03 5.41189898153657395e-02 -1.13710904937923374e+00 9.29350874466535526e-01 
328 1 5.22019509325704689e+00 5.24049525496964819e+00 1.04657864781385488e+01 -4.43164442388460511e+00 1.85250660697718270e-02 -1.60217043319519559e+00 -1.87503311557544006e+00 7.87591435081834434e-02 
329 1 6.97900289477384650e+00 3.42639667206630083e+00 1.05833629821954247e+01 -4.42444100917035676e+00 6.83972596907242610e-03 1.04823635993138486e+00 -7.32807754881957929e-01 -7.82499402101678565e-01 
330 1 6.95712392271398539e+00 5.21415993303550440e+00 1.22575301637619454e+01 -4.43922700887570443e+00 4.99441321215687330e-03 4.35582458924689719e-01 8.94141887736773722e-01 -8.07690826324850897e-01 
346 1 3.41605920339287650e+00 8.75845464586260647e+00 1.22383732114643600e+01 -4.43768030845387784e+00 4.80815678743936551e-03 -6.35947454665339529e-01 -5.52983265683893555e-01 -9.32816705327929374e-01 
343 1 1.72990047523668644e+00 6.99282411224740930e+00 1.23354191134303157e+01 -4.41768915118173311e+00 1.97307579353705603e-02 -1.33372808382268809e-01 1.37280671570371982e+00 2.14074938768585232e+00 
345 1 3.45285635236732658e+00 7.07810359289298319e+00 1.04864450530858306e+01 -4.43493404572752148e+00 5.27432788805484807e-03 2.74665084918683133e-01 -8.10551481940093521e-01 1.00057746801814851e+00 
347 1 5.23320892937423832e+00 6.99953752244951932e+00 1.22510144188767764e+01 -4.45568404861139200e+00 5.56186197655065846e-03 -1.25959677451174801e+00 3.75218559411397978e-01 3.17371836917333561e-01 
349 1 6.92255795808347774e+00 6.97991105431406034e+00 1.04789961848978503e+01 -4.42634429392256212e+00 6.20534056008790937e-03 9.89083962972519881e-01 -6.17478070479335339e-01 8.24641179456205298e-01 
447 1 5.22770794210875600e+00 7.01651963577772264e+00 1.58096315029181103e+01 -4.44197923299477093e+00 3.82866463118311951e-03 -6.66846495530819650e-01 7.58273610418779276e-01 4.88630377277362637e-01 
445 1 3.47091654373537706e+00 6.98904121795139677e+00 1.40967443199371054e+01 -4.41859628510244917e+00 1.54557152548433826e-02 -2.14755664087097475e+00 3.40052291069280588e-01 -5.93648992076113879e-01 
4 1 1.71173685964315858e+00 1.65469845145122707e+00 -2.80975046231333181e-02 -4.42997273099723454e+00 2.61097566425562812e-03 1.35273536842038189e-01 7.77134764538778611e-01 4.85746732021286431e-01 
404 1 1.68281328628255311e+00 1.68468725459066704e+00 1.40973596420909999e+01 -4.42988526551046746e+00 1.53309468278493028e-02 -1.98606320862595398e+00 -7.62836236961219494e-01 -7.16015760788634159e-01 
430 1 6.92379007650277600e+00 5.23235563824297589e+00 1.58331943571865157e+01 -4.42428588813328005e+00 4.46440860779581117e-02 -3.70079827599024336e+00 8.32638670503401790e-01 -5.33502175016480895e-01 
406 1 3.51164367687431200e+00 1.70909605901912820e+00 1.57797210912069694e+01 -4.42854703584547504e+00 3.28895324093547801e-03 5.67963955533298592e-01 3.49161423108825697e-01 7.97829075584279401e-01 
429 1 6.97423313926561317e+00 3.49432711001460250e+00 1.40503103445141733e+01 -4.45324180561036354e+00 8.98897699074847770e-04 -1.04811154105983545e-01 3.29159372937127326e-01 -4.19669488919403921e-01 
408 1 5.20245114781171747e+00 1.72259423086200614e+00 1.40244720486203445e+01 -4.44395420723333334e+00 1.30233590444133948e-02 -6.89883203273621959e-01 -1.57007326338458175e+00 1.15737094909482541e+00 
428 1 5.20673669122388638e+00 5.23413594972173435e+00 1.40322111483082210e+01 -4.44313291641894015e+00 1.85121545001222035e-02 1.83781092414566660e+00 6.77917073308071383e-01 1.49917907537626838e+00 
410 1 7.03910970189333796e+00 1.69216707279980993e+00 1.58548893530233528e+01 -4.43197107809471191e+00 5.06216000228211505e-03 9.86226899031307780e-02 -8.87298224971949545e-01 9.31036524764916495e-01 
427 1 5.24329703258440549e+00 3.47176983388329186e+00 1.57756666708648314e+01 -4.43573634320613230e+00 2.99714601939188342e-02 1.48180309998168425e+00 -2.29401045151760075e+00 1.54690993982684888e+00 
443 1 1.72342291857158569e+00 6.97983126694144396e+00 1.58152714557483023e+01 -4.43573160186357907e+00 1.22563168054947609e-02 2.81265120037041294e-01 -1.26405269680202204e+00 -1.53346738114335746e+00 
423 1 1.73619484912367783e+00 3.47467735874885353e+00 1.57773452717027656e+01 -4.44687368762932156e+00 2.60685004165917139e-02 2.58220196744063957e+00 -7.79036830097958100e-01 -1.13738600799125322e+00 
424 1 1.72537740053325739e+00 5.30677780990021475e+00 1.40527194573643044e+01 -4.42564974724374149e+00 9.78027865053247673e-03 1.53462394834446147e+00 3.49771921428532473e-01 8.58612279668418577e-01 
425 1 3.45181676735663556e+00 3.44492400266622845e+00 1.40090438031569633e+01 -4.44582596286477827e+00 2.03748475666733868e-02 -2.04181344153448974e+00 1.36339265011643035e-01 -1.58407900242613975e+00 
303 1 1.66935047476590781e+00 -5.59670228944626064e-02 1.22706878369773325e+01 -4.44340368574116518e+00 1.31990997157916436e-02 6.58714175476279973e-01 1.89662623253437168e+00 -5.54296135746824015e-01 
407 1 5.24105425339954945e+00 -5.50708273882406923e-02 1.58148309338027939e+01 -4.44799505171377163e+00 1.97281657671784690e-02 7.53426298407581463e-01 1.41798421856916690e+00 -1.97636334938596181e+00 
312 1 8.78007481820715263e+00 1.68867513428511407e+00 1.05610099560236002e+01 -4.43395028124077584e+00 2.50830761456616140e-03 -5.65889952358431647e-01 5.02356478335257872e-01 -5.01844988488167720e-01 
412 1 8.77602092605088124e+00 1.66749063237197315e+00 1.40015105682026260e+01 -4.44270183026126642e+00 1.66695307017118814e-02 -3.50438962357308037e-01 2.24865326601956550e+00 5.47510339447358274e-01 
350 1 6.98117843217346579e+00 8.77611638843869990e+00 1.23273050319119069e+01 -4.44463054668003910e+00 1.72874072378079342e-02 -3.09266201731534185e-01 -1.63611988821754872e+00 -1.70574591424142241e+00 
421 1 -7.46781386651808460e-02 3.45489778321262175e+00 1.40050017088765202e+01 -4.42828983554735967e+00 7.93223333636511492e-03 -2.43283977641551297e-01 2.76278868849551690e-02 1.59601122870900602e+00 
403 1 1.77350679578947878e+00 -4.43389691897791843e-02 1.58113359713259420e+01 -4.43434164047922152e+00 8.76840752576888739e-03 9.98767465616692413e-02 -3.11463878204820965e-01 -1.66584952165032552e+00 
441 1 -5.15052308470745276e-02 7.05671174791800038e+00 1.40351536845150697e+01 -4.44070611121126824e+00 2.32721576078967693e-02 1.94171873746046897e+00 -3.05354425550837139e-01 -1.94568362405906981e+00 
448 1 5.18019195313426728e+00 8.76297308210701331e+00 1.40402662287283295e+01 -4.45190488207026558e+00 6.96242721236034826e-03 -4.79701494063545231e-01 -1.43324569114393707e+00 -6.43059076487645376e-02 
29 1 6.93664260195381921e+00 3.53556195912597948e+00 -6.54311503397977390e-02 -4.41547945493627836e+00 1.93154953135581684e-03 5.55937373760117870e-01 -7.63534747352375004e-02 5.65662617403022927e-01 
227 1 5.22083974973266596e+00 3.46801580640128515e+00 8.74907993894091796e+00 -4.44038553068826758e+00 1.03467151279215165e-02 -1.47560065364250192e+00 9.94480888023107634e-02 -1.10159783582370041e+00 
28 1 5.18132418344863854e+00 5.18131515826846112e+00 -3.28441701658732654e-03 -4.41863252601445122e+00 2.06998976962319559e-02 1.42602346007076830e-01 2.14683166505161260e+00 -1.47462338476759180e+00 
25 1 3.46571034792950128e+00 3.44541703897491036e+00 -1.01186704679680162e-01 -4.44517280388800540e+00 2.49485117327737996e-02 -2.70785057346386449e+00 -2.29074262636993181e-01 -9.02917291611337602e-01 
226 1 3.49611775469566455e+00 5.25376018159791158e+00 8.74674417258034431e+00 -4.43958975944123146e+00 8.55647810364289045e-03 1.39918742524124751e+00 5.66202892220592835e-01 -7.30801379378728133e-01 
105 1 3.50221605967810490e+00 -1.06905931893756190e-01 3.45523304250349739e+00 -4.44076843427377810e+00 2.11269883778175196e-02 8.30715327405229131e-01 -1.66309118780335607e+00 1.86765992402112913e+00 
92 1 8.71518693827690605e+00 1.57797592544179128e+01 -7.28020899255248655e-02 -4.42966862620771629e+00 1.38623849056942437e-02 -6.77451344564762303e-02 -1.37278455788152098e+00 -1.63316391087232105e+00 
272 1 8.74201119379724290e+00 1.22503103733964682e+01 7.08391902228496484e+00 -4.42100819187388172e+00 7.77587948039942280e-03 3.72060049740340570e-01 1.55191518857441535e+00 9.45606272662273123e-02 
244 1 1.66953839118119873e+00 8.75499356996629885e+00 6.95393623539029360e+00 -4.44643097281798472e+00 2.99660529889934496e-02 -5.98636429428509032e-01 -3.07932435807462124e+00 -9.36664259194567583e-02 
150 1 6.99950583036589791e+00 8.74416132141047697e+00 5.24788104873792438e+00 -4.44713658630605568e+00 1.22795577018219946e-03 5.69387536942146499e-01 -1.46623146916734698e-01 -2.40643985038327318e-01 
71 1 8.76744935770498302e+00 1.04973713267950952e+01 1.66457276492073603e+00 -4.44459474668263610e+00 1.71365392891479999e-02 5.33867300642928089e-01 1.22692365138189574e+00 -1.96014262163346320e+00 
281 1 -6.42900545116853184e-02 1.40305640742305133e+01 6.99882837172178185e+00 -4.44161794635990326e+00 1.08296828792896916e-02 9.76246138201000480e-01 -1.28651396348827274e+00 9.75384191957099578e-01 
63 1 1.67775308661182598e+00 1.04834468059441299e+01 1.71192803405069105e+00 -4.44841467341774521e+00 2.51351129976655225e-03 -8.39101931042175120e-01 1.76405697450534200e-02 -3.48925482478249560e-01 
62 1 -7.94933088881406430e-02 1.22488780753608335e+01 1.67321514551275774e+00 -4.43476715200426064e+00 1.57876612803984004e-02 1.84194284610124193e+00 9.29182772589580930e-01 -9.65932531879452383e-01 
248 1 5.18122217036481025e+00 8.74129095115536003e+00 6.97276687378453008e+00 -4.44417998387678637e+00 5.56350553061462239e-03 -1.07195139032343612e+00 -2.97613894251736455e-01 -7.68755020830037883e-01 
66 1 3.43740698755567742e+00 1.22396865173873479e+01 1.68598054906769290e+00 -4.44037970266306115e+00 2.70453740942898715e-02 -7.49338482859951860e-01 2.22723772226344341e+00 -1.83502030731760368e+00 
67 1 5.22089617972564835e+00 1.04866511453723952e+01 1.67945706964994024e+00 -4.43718916991668699e+00 1.07343330836337791e-02 4.50258679389318531e-02 -1.33695659936173405e+00 -1.31860863951117069e+00 
266 1 3.41586608169576822e+00 1.22693992216950409e+01 8.71115850044404283e+00 -4.43602489411837908e+00 2.55533977266716311e-02 9.32412014260453725e-01 -1.90645092490158197e+00 -1.97359031850098954e+00 
148 1 5.23680977995408004e+00 8.74444410406427863e+00 3.44953301112935318e+00 -4.44446041602276054e+00 1.37668236562823731e-02 -4.99749949244232050e-01 -1.11378782579709101e+00 -1.74202995673725836e+00 
70 1 7.00552374962177815e+00 1.22599314627169296e+01 1.70442124012592400e+00 -4.44434637108870856e+00 9.95083127447468976e-03 -1.27156367971419648e+00 -4.58435050646718911e-01 1.20151871614080985e+00 
284 1 1.66869651407095998e+00 1.58242252512320807e+01 6.99111382832578521e+00 -4.44828617687953454e+00 3.18805038825431715e-03 -6.24215893883505318e-02 -8.26756528247976963e-01 6.00366530875756532e-01 
268 1 5.15473483697900203e+00 1.22707216417308231e+01 7.00819948040651575e+00 -4.42944879695347549e+00 2.77334669313128758e-02 6.14518716648774666e-01 -2.95081103822108171e+00 1.75048516028552786e-01 
83 1 1.69349526666418670e+00 1.40072346199191529e+01 1.66016668691215830e+00 -4.43599534696862730e+00 3.04927609357605019e-03 -6.08705813292287123e-01 3.98856313852987587e-01 -6.87488687748921690e-01 
285 1 3.42374829324839114e+00 1.41394911024330678e+01 6.97059555132905384e+00 -4.44024553443814618e+00 6.46359531186143157e-03 -5.46127621317952339e-01 2.97019324340969115e-01 -1.31833524082996312e+00 
292 1 8.79102147728911376e+00 1.58002966617954623e+01 7.05700726896547348e+00 -4.42645607486574821e+00 1.46629875247440717e-02 -1.14435135577611224e+00 1.49977217967368004e+00 -1.12278237847430962e+00 
86 1 3.39987057263098968e+00 1.57945098768299168e+01 1.73161443115507852e+00 -4.43234781078685991e+00 1.88656538933567423e-02 1.97347870813668758e+00 -1.03701724585251687e+00 1.10942563825252116e+00 
87 1 5.19132332127728802e+00 1.40020826423515459e+01 1.77421558414321323e+00 -4.44285352602462602e+00 1.51681705969908594e-02 1.54160045635015974e+00 -1.48101701207600445e+00 -6.44669977462040800e-01 
191 1 8.71390543956157337e+00 1.40213739223085128e+01 5.35759794652187882e+00 -4.43853898461101615e+00 1.41539568000357083e-02 -2.19128784101675883e-01 -2.09068304515797942e+00 -4.82921682661689611e-01 
162 1 -8.18498434208108638e-02 1.22987240733705221e+01 5.26615165869718549e+00 -4.43660341464250152e+00 5.20766855690084959e-03 1.08990522738016260e+00 4.60651939857861292e-01 5.58199228966156702e-01 
90 1 6.96351498450320516e+00 1.58215506884687294e+01 1.76003543112750571e+00 -4.41385755576479166e+00 6.67063671626659267e-03 -6.58431121811532627e-01 -1.30047068052674453e+00 -2.60344838083592101e-01 
265 1 3.38792174047186201e+00 1.05660924586405152e+01 6.99162383084516659e+00 -4.43159290828878127e+00 1.52092518722075345e-03 -1.20075613696865521e-01 4.17494568289911772e-01 -5.57839299459597204e-01 
269 1 6.97747513488628890e+00 1.05454247038370674e+01 6.97229756643570386e+00 -4.43641408126353998e+00 9.87998514872285780e-03 -4.13879413467342638e-01 -1.69088789736267020e+00 -4.65832628656363101e-01 
152 1 8.77199327723968025e+00 8.76853908200671839e+00 3.45207532540970652e+00 -4.43685751275939655e+00 5.63206212548362541e-03 5.89399334926241636e-01 -1.19371110127570268e+00 -2.80773604290214418e-01 
109 1 7.00992865814066679e+00 -1.48329992262311805e-01 3.50246395751366801e+00 -4.41367778616637185e+00 5.17057185606285621e-02 3.36980329270871204e+00 3.07088795045079577e-01 2.35478047097023779e+00 
283 1 1.69815713910951382e+00 1.40345316752204852e+01 8.67956833735653710e+00 -4.43362083334141932e+00 8.48367137673539801e-03 -3.16546997462172686e-01 -1.46747708849654712e+00 -7.31273117180726184e-01 
264 1 1.67778400008300688e+00 1.23597591139078276e+01 6.91436459170960482e+00 -4.42364733987543080e+00 4.57997184309309573e-03 -2.28890699132448638e-01 -9.92432187781221165e-02 1.20130164299625752e+00 
289 1 6.94063506826204435e+00 1.40196117752821898e+01 7.01310148177573289e+00 -4.43267464780301879e+00 1.18375024977583204e-02 -1.45944357933627455e+00 5.65722310540129114e-01 -1.20032763326717196e+00 
163 1 1.65481118554751183e+00 1.05519841057474526e+01 5.16879590548910617e+00 -4.43877045897190659e+00 5.72116170550612205e-03 -2.74563561697342640e-01 1.60805452014321892e-01 -1.33387169370809744e+00 
164 1 1.69699999351009012e+00 1.22698433427708391e+01 3.47376330861584748e+00 -4.43745617652658098e+00 5.28112096490458271e-03 1.07218275530113205e+00 4.13680192587603857e-01 -6.44294575402461600e-01 
165 1 3.48079475893328416e+00 1.04878152481071538e+01 3.49694352911498108e+00 -4.44914655696175121e+00 6.58936656690086060e-03 1.43444163004498826e+00 1.69415143628992321e-01 -2.81954690665701502e-01 
166 1 3.44832180807319544e+00 1.23359561822023593e+01 5.23681812435701488e+00 -4.44152284221967264e+00 1.58615095038843433e-02 7.32005887732651961e-01 2.40466340992531169e-01 -2.14936637540698516e+00 
167 1 5.20571848087606170e+00 1.05457406632663222e+01 5.26379320132931028e+00 -4.44014318625329985e+00 8.62979248999082814e-03 -9.48347552078281475e-01 9.31466055986423069e-01 1.03416006133454830e+00 
168 1 5.21476673238083688e+00 1.22542140587748740e+01 3.44885843251537727e+00 -4.44076127628344164e+00 8.90529617221099377e-03 -8.34450520437786447e-01 9.31223501727890923e-01 1.16771059655813314e+00 
169 1 6.96228608117344994e+00 1.04846227062335391e+01 3.44801377490222194e+00 -4.45068786174083186e+00 2.13307581315716720e-02 -3.95488943550582617e-01 2.60425322064169107e+00 2.69338942831464478e-01 
170 1 6.93758312378250519e+00 1.22685165154828102e+01 5.20966635241521026e+00 -4.44252510682772872e+00 3.54282047429334279e-03 -1.87684314108432143e-01 1.00284769364425586e+00 3.51484447863738281e-01 
288 1 5.22532487356530417e+00 1.58429966432660763e+01 7.02122438830132456e+00 -4.43385520780082043e+00 1.20191555157162129e-03 6.11869998578919994e-01 -1.14483053450900978e-02 -1.43300616163365230e-01 
50 1 6.97945228488877412e+00 8.69418694771789369e+00 1.70103972747648879e+00 -4.44179210232743227e+00 8.82854171215689929e-04 6.53808429555400306e-02 5.31304339169591522e-01 6.01792006475813657e-02 
183 1 1.66302862435336052e+00 1.40706077146027315e+01 5.18127761567789413e+00 -4.43129456610927264e+00 2.02033736685665252e-02 -2.98331188869595809e-01 1.19211779219264602e+00 -2.26503635027395100e+00 
184 1 1.64889704906855528e+00 1.58420259611297087e+01 3.49884643080438584e+00 -4.43880056017330471e+00 1.20088148416134448e-03 3.91270066666965954e-01 2.15157439147233842e-01 4.41957186634503785e-01 
185 1 3.40423471508913833e+00 1.40556148428849639e+01 3.44787634258719278e+00 -4.44044293321502348e+00 5.88563940942083558e-03 1.11479140393584686e+00 5.25499254217190348e-01 6.44677571589682197e-01 
186 1 3.49576323063190486e+00 1.58268068203451708e+01 5.21357602578307944e+00 -4.44006737683710195e+00 3.59796651257775560e-02 -1.70792619647923738e+00 2.25493654973268054e+00 1.95555820813005776e+00 
187 1 5.20651854418980609e+00 1.40354093175360912e+01 5.28736384999021247e+00 -4.43911075960170720e+00 2.50098260393679939e-02 9.06378965187279784e-01 -8.33222678338348399e-01 2.58931643183233362e+00 
188 1 5.24859363520095989e+00 1.57891699048457692e+01 3.48951794875074262e+00 -4.43587526574183055e+00 1.02267535515526038e-02 1.75911085351561347e+00 3.16329393660631675e-01 4.08460782644568587e-01 
189 1 6.94095879699981477e+00 1.40484892256899929e+01 3.49567080005669606e+00 -4.43445752466602006e+00 1.84703364007625624e-02 -9.37363544639038704e-01 -6.81021753327709090e-02 -2.27763587269594003e+00 
190 1 6.97273571589784869e+00 1.57928659109876826e+01 5.32840512229799401e+00 -4.44724199878466653e+00 1.03515329008084852e-02 1.14952779075608480e+00 -1.12668824416967545e-01 1.43815163487649600e+00 
181 1 -1.09223175818346563e-01 1.40318862978561754e+01 3.55652939656725620e+00 -4.42336718750568281e+00 2.58435831490945716e-03 -5.18644244483599692e-01 -7.09486020031367182e-01 -2.77626159216634527e-01 
84 1 1.63135938570087813e+00 1.57849849279304291e+01 -6.23735049184107188e-02 -4.44044400057854638e+00 1.99499143477213474e-03 6.31264783980312716e-01 -2.58192516017993645e-01 -4.36536575284096451e-01 
82 1 -1.14033998080228377e-01 1.57961608133502818e+01 1.71045462550182914e+00 -4.44683585720545604e+00 3.82156472848731339e-03 -7.27079036878756080e-01 -8.09846134446930321e-01 -2.67571386855725624e-01 
7 1 5.23463628256160440e+00 -1.39462851200455873e-01 1.75895173986684683e+00 -4.42887035229354797e+00 3.56002154013914220e-03 9.73742459170558794e-01 -4.60184275414257937e-01 1.00895962693488689e-01 
171 1 8.74005221995571269e+00 1.05198465687232794e+01 5.25110283180977344e+00 -4.44489419885239379e+00 7.49963675306127790e-03 -1.76131329076750442e-01 -1.48861473086674723e+00 4.66924380980985043e-01 
205 1 3.48641472669612229e+00 -8.96854747093769333e-02 6.97091207833233995e+00 -4.44265631522613802e+00 1.60384836108372793e-02 -3.82567269372121099e-01 8.11686488644409065e-01 2.11338791350140243e+00 
209 1 6.99677318458075970e+00 -6.84716754215841661e-02 6.99141113555490801e+00 -4.43787476846192330e+00 9.66808595180822586e-03 7.96970133640174772e-01 -1.24753867423122067e+00 -9.93094137886036066e-01 
211 1 8.76621582202057148e+00 -5.51829927600167025e-02 8.77442358050922699e+00 -4.44663634819658249e+00 1.94397419402695983e-02 -4.63005380333917360e-01 2.44613212769290511e+00 4.37727891678623193e-01 
88 1 5.20040398470894694e+00 1.57816974712647351e+01 1.74067642118514859e-02 -4.43351196968602057e+00 1.09836855022968655e-02 -1.36171369901764949e+00 -1.27376939681157575e+00 -3.65259667945008415e-01 
263 1 1.69347084045602569e+00 1.05262606535971859e+01 8.74502443816389885e+00 -4.43806779433752752e+00 2.00869474231431047e-02 1.01702279467059165e+00 1.42221246062528395e+00 1.88288205822446919e+00 
64 1 1.68622845655013509e+00 1.22283657713505605e+01 -9.81592833654903602e-02 -4.43363613770323450e+00 1.69201225890557236e-02 1.01742528505531005e+00 6.33971728079234409e-01 -2.03083920048419841e+00 
61 1 -9.75739468640161034e-02 1.05377948850648693e+01 -6.67581162474111256e-02 -4.43949575040246458e+00 6.31953584807760493e-03 -9.19559373227470056e-01 3.60503562943378209e-01 -1.04956242825494450e+00 
65 1 3.40619990678119677e+00 1.05558093859608473e+01 -6.29121895965796540e-02 -4.41980522199035963e+00 9.85659365273731068e-03 -1.04829975029675060e-01 -1.79683222557669242e+00 -1.06908981407166509e-02 
305 1 3.48712759891374313e+00 -5.93741921938857331e-02 1.05306058584549476e+01 -4.44218356832604844e+00 5.15870143994126007e-02 -1.36069382108532833e+00 1.33564354306650257e+00 3.64971522971121187e+00 
344 1 1.69670140599823371e+00 8.75649229953521413e+00 1.04947819777001286e+01 -4.44346345313014623e+00 1.25477253648728399e-03 6.07935607404757952e-02 -3.68508829167546625e-01 -5.22426725476600518e-01 
89 1 6.95016201777839449e+00 1.40344897929537886e+01 -9.91090698865200181e-02 -4.44674031767062328e+00 1.43590731556486433e-02 8.78837069689006767e-01 1.16971587549137479e+00 1.60593123001714644e+00 
490 1 6.96921900493461965e+00 1.58124261035988116e+01 1.57386180100658013e+01 -4.43737928726423192e+00 1.33587476716994589e-02 1.18202972145702898e-01 1.86469760058458101e+00 -9.48548556005499810e-01 
409 1 6.94982613573126429e+00 -4.03377829864837167e-02 1.39766093408717609e+01 -4.43080473777561235e+00 1.55057414632497580e-02 6.88951804471132134e-01 3.56699873598288641e-01 2.12004897663863767e+00 
481 1 -4.39422099670026683e-02 1.40014860681227127e+01 1.40416684882900054e+01 -4.43137490933143230e+00 9.98050074154430839e-03 2.54500089238802019e-01 7.70421228128145397e-01 1.61929516845190902e+00 
311 1 8.72886311468115927e+00 -8.33525447938114894e-02 1.22931607647752568e+01 -4.44124146859268976e+00 4.49081211716908374e-03 4.89124968264551263e-01 9.41634638569150750e-01 -5.91727435590322037e-01 
291 1 8.73842687892588010e+00 1.39607361169398203e+01 8.76480589554421918e+00 -4.43625912582183357e+00 1.03502379361592005e-02 -2.89803747770161935e-01 1.16304089768118790e+00 -1.40189605673554518e+00 
489 1 6.90424298904411504e+00 1.40588420529219604e+01 1.40120917725244709e+01 -4.44622745136691666e+00 1.43178796304750406e-02 6.64529184277882989e-01 -1.77599882333250614e+00 1.05370508637993532e+00 
287 1 5.22167664721007352e+00 1.40310019567809778e+01 8.78249467615141022e+00 -4.44693161144733118e+00 9.72045711549534772e-03 8.58432435146890604e-01 1.48582416591471334e+00 -5.00383849583880824e-01 
361 1 -5.56306981606993073e-03 1.05318158617706175e+01 1.05100602764442961e+01 -4.44646527425284432e+00 9.40077690970144049e-03 1.51822764245087538e+00 -4.38777569819449875e-01 7.69642015761334397e-01 
81 1 -9.44638166835468224e-02 1.40348458401731353e+01 -6.90206778952386912e-02 -4.43992121623499258e+00 1.20837215911038208e-02 -1.74628361169382562e+00 -9.09618607006094204e-01 3.07928012253765315e-01 
309 1 7.02919240958616953e+00 -7.54279809916695854e-02 1.05331311430814409e+01 -4.44655008463878243e+00 2.21384933966296722e-02 -7.91410465443070033e-01 -2.45508988714936116e+00 -7.89166015306683177e-01 
488 1 5.24128572269027426e+00 1.58181677760435910e+01 1.40016727498522382e+01 -4.42578601717340447e+00 2.75980174881513543e-03 6.60462498370246842e-01 -6.26885620920578757e-01 -2.79119678749878475e-01 
371 1 8.68620025878714763e+00 1.05080004966891565e+01 1.22266771187181256e+01 -4.42252333618011573e+00 4.53288437951687457e-03 2.50356489326242770e-01 8.36819013931606626e-01 -8.52610375446301028e-01 
203 1 1.75223654223959446e+00 -3.66663203174582009e-02 8.72396837103227973e+00 -4.44254214791956681e+00 2.37856892356559796e-02 -1.17537294887847388e+00 -1.16720249476860216e+00 2.25258171989255684e+00 
267 1 5.20725407905294801e+00 1.05512981285387522e+01 8.74428024563204609e+00 -4.44238625835095746e+00 1.77910113059685238e-02 1.55474194725874137e+00 1.28487540740107442e+00 1.33397995409449766e+00 
485 1 3.51965799373420074e+00 1.40690317260147477e+01 1.39977305568757586e+01 -4.43904907628215017e+00 9.19383320766775473e-03 -1.31187877037958533e+00 -4.08684868767645149e-01 1.06481047273390628e+00 
446 1 3.44677082040475735e+00 8.72046863587532606e+00 1.57822678137671559e+01 -4.43154657005007557e+00 9.95341590459797006e-04 3.60237902107046148e-01 -3.36705044496036443e-01 -2.89847771997514214e-01 
468 1 5.18403097272475311e+00 1.22232807081360626e+01 1.39721975237272051e+01 -4.42822976051688322e+00 2.19288660202949246e-03 1.57452939459153007e-01 8.11518175910498796e-01 -1.93428753558854194e-01 
363 1 1.69044373571934181e+00 1.05244398617364183e+01 1.22807646155900283e+01 -4.43746980463608498e+00 1.19706978247227681e-02 1.00140601729001744e+00 1.44567054977960319e+00 9.17499652344676453e-01 
364 1 1.73315285531365149e+00 1.23245997724915970e+01 1.04763828641164363e+01 -4.44428386196208169e+00 1.46181719010988996e-02 -9.15399379409037484e-01 -1.98816308705147460e+00 1.18398479375129512e-01 
365 1 3.43580024735828848e+00 1.05261925416935220e+01 1.05322100018367060e+01 -4.45293817632127009e+00 9.38858589267281378e-03 1.73274824223804869e+00 1.52278645674369634e-01 2.45514779849339310e-01 
366 1 3.43054302419797219e+00 1.22850559470936247e+01 1.22423146307680657e+01 -4.44499517928922128e+00 7.34166308842218191e-03 -3.29671980585795110e-01 3.34248141376397689e-01 -1.48077192979376338e+00 
367 1 5.21209676049401782e+00 1.05171363040382513e+01 1.22754669324875501e+01 -4.43814632142410836e+00 3.84395342023679913e-03 3.00933871602573344e-01 -1.02274639391495459e+00 3.56197374034552261e-01 
368 1 5.20461355449409702e+00 1.22670024845733057e+01 1.05557984263182014e+01 -4.44707226908966469e+00 1.27803631343479393e-03 1.03924523750747025e-01 -6.04645528932327148e-01 2.08983775809870737e-01 
369 1 6.95966920537315303e+00 1.05098423349611174e+01 1.05179109372129496e+01 -4.43556387114190542e+00 5.68542678010570957e-03 -6.86939858577994666e-01 -4.26513535765022794e-02 1.18110381183694391e+00 
370 1 6.94720675172488544e+00 1.23091988447957927e+01 1.22730274901510672e+01 -4.43791563038182613e+00 6.21618901935885784e-04 7.31232834698816725e-02 -2.57281019435104008e-01 3.64384367563845069e-01 
482 1 -7.44019279206839523e-02 1.58959355325099398e+01 1.57635693121625060e+01 -4.44059525859696347e+00 3.43778990201241141e-02 -2.60909019117170660e+00 -1.52236197219709135e+00 1.47463396540816349e+00 
69 1 6.97373422307411595e+00 1.04543740925661393e+01 -4.05914057996952238e-02 -4.44556712894781914e+00 1.18632087122052046e-02 -1.10783058024820735e+00 -4.42643442053490488e-01 -1.57354095729825683e+00 
383 1 1.69771697696366863e+00 1.40825012392033919e+01 1.22860127324038064e+01 -4.44229442417255171e+00 6.74700664504329552e-03 1.01931910644698887e+00 -6.94276168554300854e-01 -8.34629104158648771e-01 
384 1 1.75398411328777359e+00 1.58162724315675476e+01 1.04633898255528539e+01 -4.44493417821251136e+00 9.17854331444121693e-03 -1.01491952298743393e+00 -4.65239461632753926e-01 -1.33053959997243587e+00 
385 1 3.47033359856610524e+00 1.40452949562177789e+01 1.04633169867407183e+01 -4.43302149796372014e+00 1.27715217207586950e-02 1.35112866065720455e-01 -1.08135811247080868e-01 2.04153190827640119e+00 
386 1 3.46382823543235574e+00 1.58014068232508151e+01 1.23035524633840989e+01 -4.43460886725077952e+00 1.44521921094212542e-02 -1.04844515422589191e+00 1.37046367658206714e-01 -1.90583124894811085e+00 
387 1 5.19686209812283639e+00 1.40874810167217781e+01 1.22131698129766502e+01 -4.43684353715442104e+00 2.64220065009850395e-02 -6.54489993345577226e-01 8.92145884408947709e-01 -2.73134085359905798e+00 
388 1 5.22458176462704937e+00 1.58291926939841510e+01 1.04936749086174785e+01 -4.44994468288529799e+00 8.91745763635128953e-03 1.69296784328198058e+00 -2.32060215158658184e-01 -1.05062560373623770e-01 
389 1 6.96120326597437966e+00 1.40115610254011571e+01 1.05299878323438598e+01 -4.44196419889189364e+00 2.67473624209380971e-02 -2.52024134783303033e+00 -3.81894786055961555e-01 -1.51459026193062596e+00 
390 1 7.01640177236503604e+00 1.57972941358398149e+01 1.22275839460009621e+01 -4.44639490815962457e+00 3.03198606286936047e-02 -1.82496885120244090e+00 -1.98946751482155881e+00 1.63620789232394559e+00 
467 1 5.23083844692455724e+00 1.05119349180735266e+01 1.57963919174958960e+01 -4.45131237924859047e+00 5.95600541375692488e-03 -2.83281411672497430e-02 1.39573767384622838e+00 -9.35980220960020287e-02 
484 1 1.72617981323823488e+00 1.57928128973914124e+01 1.40375705543560496e+01 -4.43280860596986059e+00 4.97372835575493003e-03 -4.88628704861813312e-01 1.18054017331079941e+00 -4.85217572688460344e-02 
483 1 1.72017915147662404e+00 1.40461026980291770e+01 1.57915106000497616e+01 -4.45375780516381159e+00 4.14677924923448626e-02 1.97620828439754304e+00 3.45787629742126790e-01 3.09916970065260111e+00 
486 1 3.49758321885893508e+00 1.58051644934893076e+01 1.57687253528398266e+01 -4.44175532974263909e+00 4.54068264394365262e-03 -5.56204006447830523e-01 1.08096143102623898e+00 -1.20878214412371940e-01 
487 1 5.20920815341773213e+00 1.40791292065162104e+01 1.57833684401069743e+01 -4.42944370507075202e+00 4.49776037017624811e-03 -2.81900913677099907e-01 1.05761365235557414e+00 -5.29461429685972762e-01 
470 1 6.95792336906680919e+00 1.22754964339544284e+01 1.57659651865245678e+01 -4.43959646040514144e+00 2.34117901575510712e-02 1.78448755143726934e+00 -1.94822084977017185e+00 -8.45655072203113645e-01 
469 1 6.97909177528494329e+00 1.05385319923881546e+01 1.40614746826300916e+01 -4.43520425513930672e+00 9.53796889990183965e-03 1.55848009190592690e-01 -1.80603555628400456e-02 -1.76362350469639262e+00 
463 1 1.75082085892655503e+00 1.05119177678180868e+01 1.57611435633047545e+01 -4.44055097660227549e+00 6.49536921399358896e-02 4.53529564703543731e+00 2.77572000674016939e-01 8.38641594144156732e-01 
464 1 1.70340010133163178e+00 1.22664755570564594e+01 1.40300882150123556e+01 -4.44105791316991283e+00 1.08922161487938832e-02 1.74334347952410895e+00 7.69563730427147985e-02 7.31391802446326289e-01 
465 1 3.46929709065122482e+00 1.05333324186858501e+01 1.40148873988340963e+01 -4.43601627132205412e+00 1.05741643219174428e-02 -6.05889791451810655e-01 1.54266899536064139e+00 8.53600586799036498e-01 
466 1 3.52341777839872305e+00 1.22801246135105888e+01 1.57611127059643152e+01 -4.44014834614403764e+00 2.21142137642593682e-02 -1.21568807707796300e+00 -2.21126413498899499e+00 -9.49217026805513342e-01 
462 1 -6.52966030530539032e-02 1.22784724726190646e+01 1.57691805562511291e+01 -4.44196176803063025e+00 6.60254179399463736e-03 6.35938205611765839e-01 5.89175963991366736e-01 -1.19105310698532540e+00 
382 1 -4.75450252117817218e-02 1.57913236139631632e+01 1.22497612882624072e+01 -4.44056046356736722e+00 2.10601197290563799e-02 3.48525265742042623e-01 -2.56643585121280138e+00 -4.62679497657944749e-01 
85 1 3.45032903926330103e+00 1.41060564065707208e+01 -1.89304851275444719e-02 -4.42959048436184144e+00 3.18714725100502968e-03 4.93904520974110250e-01 8.25502832619029125e-01 3.49527300067196789e-01 
246 1 3.45960306915366056e+00 8.77188957910107092e+00 8.72993702087874368e+00 -4.44900299184324233e+00 1.55532601759593480e-03 3.87337356793981569e-01 1.97691312363561633e-01 5.67538094526595427e-01 
471 1 8.72323099802144597e+00 1.05369990564891651e+01 1.58098986340293841e+01 -4.43539579748992274e+00 2.53696439590620458e-03 8.12534396940392423e-01 -2.29986951945561041e-01 -3.47497853035394155e-01 
286 1 3.48812351959232148e+00 1.58128404014027559e+01 8.78146195316045208e+00 -4.43231454315122075e+00 1.78235696914861887e-02 2.00890701151206885e-01 1.89276492768303561e+00 -1.49513047751223027e+00 
270 1 6.93339590014580587e+00 1.22702562236011214e+01 8.71931766551827536e+00 -4.43490426086530931e+00 1.36828158702349684e-02 -6.68100184759621074e-01 9.52986551995624098e-01 1.77279113817383949e+00 
68 1 5.20119648885161023e+00 1.22698455172202241e+01 -5.54344725085371692e-02 -4.44674272962165418e+00 1.23405044959052895e-02 3.76777966933995845e-01 5.69538302348454151e-01 -1.89467600732334662e+00 
290 1 6.95852836835276012e+00 1.58101227790408032e+01 8.73103205021049789e+00 -4.44941442582050684e+00 1.23239751277575884e-02 1.03565471386347596e+00 -7.86720943241060455e-01 -1.53596523748602110e+00 
282 1 -5.30867605958135758e-02 1.58568826360299244e+01 8.75526911668576879e+00 -4.43131062579209178e+00 1.85652190941738571e-02 -6.66713123865201762e-01 -2.37081903333200072e+00 -1.91861103527683652e-01 
257 1 1.40037614595978397e+01 7.02145765635577401e+00 6.96744812324552232e+00 -4.43661387070819746e+00 3.41827109371946889e-03 -8.57475487071191922e-01 -5.56259748845470692e-01 -2.80791104070239050e-01 
253 1 1.05481779870422887e+01 7.04258271746469156e+00 6.94115775982410099e+00 -4.43524119787482807e+00 8.05665588621837583e-03 -1.35586160089976215e+00 7.19546734723296000e-01 -5.40360820932346608e-01 
121 1 -4.74627307908619400e-02 3.45461881294515338e+00 3.44305310311595658e+00 -4.43512087303588043e+00 3.14675511778030811e-02 -9.11106324076200624e-01 9.78497136586098604e-01 -2.92494876779735291e+00 
14 1 1.05110776806853252e+01 1.67835499478528249e+00 1.72148356902580613e+00 -4.45045027936851145e+00 1.79822642030395240e-02 4.89277915660762508e-01 2.55923679512086888e-01 2.36761523679786112e+00 
113 1 1.04678137935785571e+01 -5.60467510368095057e-02 3.47894118399112795e+00 -4.44342295988944791e+00 4.82839921027454662e-03 -1.02247687640707102e-01 -1.24722841902836379e+00 1.44867922445765074e-01 
19 1 1.58102457741323796e+01 -3.37754896380613456e-02 1.72539139013206055e+00 -4.43434637788190322e+00 2.84936545557824134e-03 6.55585510438129626e-01 -3.37125304658846381e-01 -6.26974049835931968e-01 
131 1 8.75837426628359417e+00 3.41259794920227311e+00 5.19304890509335504e+00 -4.43724337037783823e+00 7.30637367958042634e-03 -1.25027847883229404e+00 -7.38672048631198064e-01 5.40979843164047791e-01 
18 1 1.40210022160541925e+01 1.64659044552660339e+00 1.74709548704673701e+00 -4.43178443707973102e+00 1.25378417210272961e-02 1.79837533834839386e-01 2.02124075727240626e+00 -5.69090402422047018e-02 
37 1 1.40484364782538336e+01 3.52195056112045046e+00 -3.02987494994889882e-02 -4.44614607277131935e+00 8.08241011270556769e-04 1.28101938375717400e-01 -4.49021138507344153e-01 2.18234305727873196e-01 
117 1 1.40318571513888877e+01 -6.72878049946830925e-02 3.50790233715381916e+00 -4.43958077557963549e+00 2.04241681573038474e-03 -2.91835086213989625e-01 -3.46964650551747633e-01 6.82465080614416353e-01 
241 1 -6.87032271269032435e-02 7.06439170201275957e+00 6.97643767519190838e+00 -4.43613591574444133e+00 4.79642483427266363e-03 -1.31536791260036812e-01 6.92035030978335297e-01 -1.03937295525408513e+00 
240 1 1.58468053682227357e+01 5.18445393724498338e+00 6.99656070940701991e+00 -4.44817936128854718e+00 9.20690581575433868e-03 -1.56903347935968474e+00 -4.67759408821606215e-01 5.87794532877857323e-01 
142 1 -8.45458146173818648e-02 8.79088119521898825e+00 5.22037640892956123e+00 -4.44491655487307469e+00 3.20020011416607747e-03 4.56740573354722845e-01 7.11044991498834156e-01 5.81084571001077466e-01 
34 1 1.04871114371471048e+01 5.17044849408854201e+00 1.68844891409167364e+00 -4.43584899828454216e+00 1.72298132194989712e-02 6.01303807300772597e-01 -1.92080796889992300e-01 -2.29449589957084621e+00 
35 1 1.22545790244044532e+01 3.46543472606459035e+00 1.74707733310620661e+00 -4.43956113059855184e+00 8.47627561745989758e-03 -1.36405418924142663e+00 9.61750317062483484e-01 2.03224923987560362e-02 
218 1 1.40389397503363789e+01 1.76523132378782655e+00 8.77816596430524498e+00 -4.43208956698585066e+00 4.84371140181220992e-03 1.17270453478055159e+00 -3.44285149578733018e-01 3.13503945569567399e-01 
22 1 -5.15644278709075365e-02 5.26689590409823616e+00 1.74215034728288343e+00 -4.43804914303543363e+00 4.94943942654657489e-03 8.36468907674395634e-01 -3.07830391554963556e-01 9.12340010440881866e-01 
38 1 1.40092956353717426e+01 5.25081115785785268e+00 1.75766746917232886e+00 -4.43868600910508970e+00 9.60430078911232721e-03 -1.67075376965475419e-01 -1.32084009949852232e+00 1.17654245961343351e+00 
39 1 1.57449303415179447e+01 3.45805450192620256e+00 1.72251733505209925e+00 -4.44514275885874710e+00 8.04690764080737142e-03 -1.92019843544710939e-01 -1.55211023180211760e+00 4.46067384805668044e-01 
232 1 8.80132529294500188e+00 5.24935948524046658e+00 6.90447695658540450e+00 -4.42387380438828171e+00 4.42142651238143850e-02 -3.03831903080111143e+00 -2.29396660496462967e+00 1.97177073068629694e-01 
237 1 1.40446848385882532e+01 3.49782158060195147e+00 6.93664258314404325e+00 -4.43555002929701558e+00 2.60251943364802618e-02 2.52099326378482091e+00 1.09889054427114452e+00 9.95545484833163186e-01 
15 1 1.22792935226763724e+01 -9.27329681664956773e-02 1.78886354908343059e+00 -4.44355376820206338e+00 9.04482830782105639e-03 -8.69672575267842363e-01 -1.26096910144989649e+00 7.91531115834652854e-01 
55 1 1.23348262555981822e+01 6.98575432444360622e+00 1.68302940383985367e+00 -4.43842232433518014e+00 4.76437015003427621e-03 -7.49486375846622477e-01 -8.78206626505921850e-01 -4.82698629616741703e-01 
238 1 1.40499141460100194e+01 5.23976564454025340e+00 8.73145462166871233e+00 -4.43067229940100038e+00 6.13849576069121997e-03 -6.62705750140243799e-01 -8.36306251846144266e-01 -9.37572087805633614e-01 
59 1 1.57674623589425096e+01 6.98376000667210839e+00 1.65798074890406899e+00 -4.43735525881837134e+00 2.47853682404299393e-03 -1.48671763675043894e-01 -7.38661870819780186e-01 -4.96922540775717347e-01 
102 1 3.84057443315626301e-02 1.73223982861529846e+00 5.23460294505004153e+00 -4.43349269721449790e+00 9.07004102234199028e-03 -2.91827008554533196e-01 1.06955648274334986e-01 1.69840498275437812e+00 
236 1 1.22936532938146090e+01 5.23142792621021346e+00 7.00710810647565996e+00 -4.43971890831291560e+00 6.04870238355688979e-03 -1.85804887901400262e-01 1.31624459021591078e+00 4.70203687856861785e-01 
156 1 1.22779733539290365e+01 8.78353807713731172e+00 3.44794905572240040e+00 -4.44493762641630319e+00 1.50130103678185241e-02 -8.09179536644593078e-01 1.87141466307700211e+00 8.81804745477807739e-01 
114 1 1.05414000562565473e+01 1.67114698000106565e+00 5.27616568415380183e+00 -4.43673590114718941e+00 3.94892043143017617e-03 2.80734309124468673e-01 -8.38561020966595433e-02 -1.10095657643247313e+00 
160 1 1.57663968612573093e+01 8.73407259191165686e+00 3.42693503173491720e+00 -4.44218797979371605e+00 2.34948517263855201e-03 -5.52135988972196068e-02 -7.33869975172810829e-01 4.80235050091801730e-01 
116 1 1.22225297783625546e+01 1.73941993157024943e+00 3.48740739706579639e+00 -4.43374625077825080e+00 1.97603299688887350e-03 -6.25276306327378850e-01 -3.93629297603561634e-01 3.21833740165727633e-01 
213 1 1.05713440845298337e+01 -6.07882410043708299e-02 7.02465237366683226e+00 -4.44121354244184641e+00 8.06736132385861213e-03 -1.13889784792932147e+00 -1.14369627249609418e+00 2.15608999908332294e-01 
118 1 1.40050248583086763e+01 1.72950875796624870e+00 5.19375368284728367e+00 -4.44568588456989744e+00 1.05896596466736772e-03 -3.25788723014291570e-01 -1.21287651843896213e-01 -4.76672554100516899e-01 
202 1 2.03517022959118776e-02 1.75360550800565607e+00 8.73596432436050030e+00 -4.42509448752522339e+00 6.17135857001736669e-03 -1.36928513431673760e+00 -3.47864056251163289e-01 -1.80218738488669400e-01 
120 1 1.57766597545072411e+01 1.71772773261348077e+00 3.44410772960864309e+00 -4.43956726651950540e+00 3.33127808957421091e-03 -6.18347522417369899e-01 -8.42310964868019485e-01 5.56604903462912387e-02 
233 1 1.04863745469795884e+01 3.45328142783528413e+00 6.98604842361413958e+00 -4.43622899483834132e+00 1.86915407379809988e-02 -2.29872268276362046e+00 3.59847493060332146e-01 -8.54402562386294862e-01 
158 1 1.40042002013445668e+01 8.79381004213842310e+00 5.16270728034382831e+00 -4.43554193705740740e+00 1.00616872846286576e-03 -1.10432798863368917e-01 2.36767193732682346e-01 5.12306519091613510e-01 
133 1 1.04468302020625945e+01 3.47262271548391732e+00 3.43264425294767417e+00 -4.44305597357013671e+00 6.02460859519227555e-03 1.22180367500703446e+00 -3.07364884371529201e-01 6.26831826138687709e-01 
134 1 1.05627297765120556e+01 5.23194515626940060e+00 5.24667877399073301e+00 -4.42914437416875106e+00 1.50930839093189298e-03 -5.36689901741750575e-01 4.55905194651020085e-01 1.41666307833871376e-02 
135 1 1.22605016518282071e+01 3.50160061528092248e+00 5.25614707532641390e+00 -4.43891516080750836e+00 1.95353683384384864e-02 -1.11420491075026873e+00 7.31728504375207534e-01 -2.15501596378726878e+00 
136 1 1.22812830276704741e+01 5.26620955202635788e+00 3.46854422616069868e+00 -4.42652682589750945e+00 1.38569322513323488e-03 4.89996578338892597e-01 1.25222053676404431e-03 4.64066466569411529e-01 
137 1 1.39928818130688732e+01 3.48011741569979938e+00 3.45866185481329058e+00 -4.43598815301481597e+00 2.54285914312224713e-02 6.13336176585126472e-02 -2.52146278364356213e+00 -1.41295709790493174e+00 
138 1 1.40497176760569253e+01 5.18026624262813762e+00 5.17646800613472280e+00 -4.43175994332268530e+00 3.24898594177804104e-02 -1.76729912742017192e+00 -1.96458228355232078e+00 1.92249416221179747e+00 
139 1 1.58701268789831804e+01 3.44370360633345429e+00 5.18061722827827786e+00 -4.44171814661488984e+00 9.07593787038085340e-03 3.76005228068556130e-01 -1.61815632097454176e+00 4.72557288626987593e-01 
140 1 1.58181652206455823e+01 5.24699416263388407e+00 3.49128382179538610e+00 -4.44867890159915902e+00 9.45430808670409163e-03 -9.40599951993943084e-01 -7.38087102544297768e-01 1.29537013652937505e+00 
220 1 1.57871676533434790e+01 1.74524211454833522e+00 7.02695018458220666e+00 -4.44399287997982562e+00 1.53780512131873708e-02 -1.05531742390749739e+00 -1.39958978509334142e+00 -1.40782840321593095e+00 
153 1 1.05735758092731800e+01 6.97752529908120156e+00 3.45734618721595544e+00 -4.44237519764406574e+00 1.80223082378695547e-03 -5.00670570540934556e-01 3.21102425800218860e-01 -4.88454265147774791e-01 
155 1 1.23208849697375076e+01 6.95870614241880148e+00 5.20602464591159197e+00 -4.43537554940439183e+00 1.31483333728932023e-02 1.85253336337483177e+00 -2.82767541364795982e-01 -8.99897872845931035e-01 
157 1 1.40366485263297456e+01 7.00134902087646172e+00 3.50762126346947856e+00 -4.43260963643094197e+00 1.01867932691944744e-03 -5.57613171688756126e-01 -1.53918528749482419e-01 1.41687614368501465e-02 
159 1 1.57334608064883454e+01 6.97026633995557798e+00 5.28520817209861438e+00 -4.43332476109467422e+00 1.13415904909820232e-03 3.14467088558632868e-01 -4.75053185181384729e-01 2.19580131210349250e-01 
216 1 1.22513568419230854e+01 1.73425581730748180e+00 7.04497431422535580e+00 -4.44529561480205793e+00 1.87269749054542224e-02 -8.43698664421288380e-01 1.13267709974477104e+00 2.03972589886622924e+00 
31 1 8.70238198093903215e+00 3.44746590930704544e+00 1.65021673138989966e+00 -4.43001590693444491e+00 1.11240961853288425e-02 1.88005712673012160e+00 1.39940179860115504e-01 -3.19562298105722009e-01 
154 1 1.05175533008287978e+01 8.77690735261540844e+00 5.22181443255666622e+00 -4.45269387764203461e+00 6.17337394197103526e-03 2.17632417393812061e-01 1.33029625667733931e+00 -4.60478442828349543e-01 
221 1 1.69334162595689008e-02 3.42433145474525436e+00 7.01148663554220519e+00 -4.42651800863019762e+00 4.20274482762711954e-02 -1.40238124402184439e+00 3.39510020519251743e+00 5.66032448263866117e-01 
60 1 1.57886323122540286e+01 8.73893114517263037e+00 -6.25710518653920106e-02 -4.43770910619352410e+00 6.94399953553531766e-03 1.23214034936905348e+00 -7.14092016803174134e-01 5.04269613792831417e-01 
53 1 1.05063752043732883e+01 6.99920313157432883e+00 -1.10357469969487670e-01 -4.43440139924434273e+00 2.67855967534366066e-02 -2.35673565127348450e+00 -1.47015986223590223e+00 1.04328223547156140e+00 
112 1 8.67832606552975960e+00 1.60569112606632625e+00 3.45002392371863920e+00 -4.41867679317677720e+00 3.54170617025076073e-02 -2.35792948065566188e+00 -1.24277298983475060e+00 -2.12995856067622658e+00 
217 1 1.40559923486222864e+01 -4.18470781265371378e-02 6.97044832008412119e+00 -4.44594893814099024e+00 5.01254215599283067e-03 -6.43982843307980057e-01 -1.00679951042251337e+00 -4.68172843335746047e-01 
119 1 1.58298485677399476e+01 4.13236508822838189e-03 5.27941943965030802e+00 -4.44067354012136839e+00 1.41246051250776749e-03 -6.46122208817267896e-01 -8.97664065484798240e-02 1.96779004283718778e-01 
201 1 -3.21390844370732509e-02 -6.46923406135943568e-02 7.01163784932778622e+00 -4.45039218057293873e+00 7.07924409997772331e-03 -1.23787899087589848e+00 6.44208262743270060e-02 -8.89012624788120376e-01 
41 1 -9.09905253877596465e-03 6.96458199076843876e+00 -6.74844247559190230e-02 -4.43505854174777170e+00 2.13027953323974700e-02 1.20991749728485321e+00 1.74532205005294738e+00 -1.57855929891986824e+00 
214 1 1.05337891741018588e+01 1.72333439772699237e+00 8.78440582848091189e+00 -4.44420654525176406e+00 2.21952050568083488e-03 5.07500618484133970e-01 -3.88176022041054170e-01 5.66819645417863116e-01 
258 1 1.40604897681368506e+01 8.74505415529468522e+00 8.77256872533028798e+00 -4.43427571701068857e+00 1.03044504566043825e-02 7.01542962646444224e-01 1.56936730219330967e+00 6.57143061157338892e-01 
57 1 1.40603719391906026e+01 6.94003445366567284e+00 -1.04317901873076241e-01 -4.42767592510288654e+00 1.42049079447004057e-02 -1.24410689933637508e+00 1.57542171576205314e+00 -7.99485874497281257e-01 
242 1 -8.44813912755917329e-02 8.74637846253847506e+00 8.74479705188237233e+00 -4.44347870283772295e+00 3.39294078642158204e-03 -4.52391687913171081e-01 -9.05230314394886770e-01 -3.01839232334091434e-01 
16 1 1.22959413917592606e+01 1.72228287751863807e+00 -6.85097063896262376e-03 -4.44450466443001524e+00 1.56695585229866680e-02 2.40113018852472132e-01 -3.16198478257894211e-01 -2.23443626956994068e+00 
33 1 1.05062137786517003e+01 3.45226269284998688e+00 -7.85575645238028586e-02 -4.43783667984774688e+00 2.30693879009827366e-02 2.66974673050474998e+00 -6.71501507745638992e-01 -6.39421896111037891e-02 
36 1 1.22367743352973530e+01 5.22593428380234659e+00 -5.89222248081856595e-02 -4.44866528690786556e+00 2.72276820036385352e-03 -2.31737009101067482e-01 9.17076470594331061e-01 -1.41576998166188395e-02 
251 1 8.76539568970267347e+00 6.96717296358012383e+00 8.77176281135560743e+00 -4.43795769999679379e+00 2.16833065768677370e-02 -3.39743527452472271e-01 -2.04816939486285543e+00 1.67825608495861411e+00 
255 1 1.23205355415894662e+01 6.94832131503251205e+00 8.77514781068139094e+00 -4.44602527056571706e+00 3.90188179566837608e-03 -3.56073821285308512e-01 -1.04498319689074881e+00 -2.52407730431437216e-01 
40 1 1.58269574781770821e+01 5.20747667351346344e+00 2.93913226053142684e-03 -4.42251277882537419e+00 1.02650062863228649e-02 -5.37362194512074232e-01 -8.27427309108820008e-01 1.54937228989193043e+00 
17 1 1.40579247725321057e+01 -4.28210783563282571e-02 -1.83269081100512210e-02 -4.43093279215326152e+00 1.78238642095767987e-02 1.89898509167535567e+00 -1.35727574075256863e+00 -6.40379792588640750e-01 
317 1 1.40031533050598131e+01 -9.38959002295490369e-02 1.05159701365946372e+01 -4.42819493429435962e+00 1.39383481158935445e-02 3.08145500235822378e-01 -5.83545615931960748e-01 2.03613359109687009e+00 
235 1 1.22528837803725423e+01 3.55174440128292579e+00 8.78470550671075046e+00 -4.44403266694110854e+00 4.63997303279727394e-03 1.12666864194321814e+00 -2.80604216815395158e-01 4.20673641388110198e-01 
341 1 -9.99087246538614693e-02 6.99607240453649837e+00 1.05359688760426593e+01 -4.43821403839752016e+00 2.44539712295531041e-04 1.58215411977050580e-01 6.56348960932436748e-02 -2.25912282994064711e-01 
322 1 -7.07694536200911273e-02 5.24061808930426487e+00 1.22437644528284864e+01 -4.43797598881880884e+00 1.42811832555468678e-02 -8.24946772148937191e-01 -1.52626505570962023e+00 1.29768314279212871e+00 
459 1 1.58390215703673221e+01 6.98850671752285191e+00 1.58342474549724166e+01 -4.44506909311699161e+00 1.89768312055684056e-02 -3.15429941495637689e-01 1.07502642988997676e+00 -2.23208705341702984e+00 
351 1 8.68419212634204207e+00 6.94853463438975805e+00 1.23558582196669491e+01 -4.42511508524618069e+00 2.98317896217186037e-03 -4.08036146399594513e-01 8.67487734226316198e-01 2.47984380348170635e-01 
52 1 8.77373496469439473e+00 8.69480337846595042e+00 -1.08953312325990481e-01 -4.44181081597000027e+00 2.77109053320711771e-02 2.30517580209165240e+00 1.80260180433439610e+00 7.38198230564107716e-01 
454 1 1.05424919860497006e+01 8.75050793572373209e+00 1.57390128589037559e+01 -4.44367409807623481e+00 4.90797963029229777e-04 -3.54695007393096617e-01 -6.42710924547998247e-02 -1.77139399714145079e-01 
415 1 1.22809733429846499e+01 -2.78601372147439241e-02 1.58357067006622305e+01 -4.44323615425595975e+00 1.10063796596758003e-02 2.19887120501872063e-01 2.84629306806662652e-01 -1.86768903443276013e+00 
458 1 1.40510096700638645e+01 8.74542013737021406e+00 1.57714954691285936e+01 -4.43696900484168300e+00 1.28643348277504756e-02 8.04654466081451747e-01 -1.78662057360971982e+00 6.23558914318401714e-01 
419 1 1.57410748073222866e+01 -3.96304293904417917e-02 1.57908715025784883e+01 -4.42050132292280473e+00 7.47404466959791357e-03 -1.17287237269920364e+00 5.48866885915784142e-01 -8.83016566692391702e-01 
432 1 8.73856782231768392e+00 5.21120161493420753e+00 1.40336993577139459e+01 -4.43906131011099703e+00 7.83224831664041873e-03 -1.24815579969411550e+00 8.00175974504257148e-01 6.13322279284597371e-01 
457 1 1.40866260302373263e+01 6.97362629482685037e+00 1.40620559815561990e+01 -4.43951374322057912e+00 1.51277833192798462e-02 -2.14880940844235413e+00 -5.32910998453670293e-01 2.66255625679884644e-01 
402 1 -4.20747265793401937e-02 1.72505204407099932e+00 1.58390144911220148e+01 -4.45189956858256242e+00 4.47709674068608350e-03 8.76260184039350132e-01 -5.86953682786199415e-01 5.99337815827233111e-01 
352 1 8.69552307567762917e+00 8.63134000301896087e+00 1.05928245912601522e+01 -4.42997694671444542e+00 1.10450292662526151e-02 5.06736298037413269e-01 -1.45605341885733042e+00 -1.11957885391037060e+00 
314 1 1.05208760173902967e+01 1.67756226376285578e+00 1.22406084402117017e+01 -4.43315232138646742e+00 8.91896483944423606e-03 1.61244120470801411e+00 5.37965292610835394e-02 5.73293025031304526e-01 
438 1 1.41222612055713252e+01 5.25415551019034499e+00 1.57772994415708911e+01 -4.43184159639678654e+00 1.32395109987343881e-02 -1.20118797303973102e+00 7.69085813992205325e-01 -1.52226037980770501e+00 
316 1 1.22881642228156309e+01 1.68878061508250421e+00 1.04805807602640968e+01 -4.44139198272690372e+00 1.36826471628820646e-02 1.37296540097292108e+00 1.06818226376890135e+00 1.21294140516145688e+00 
321 1 -5.63260352016818899e-02 3.44548793610665127e+00 1.05328749665352106e+01 -4.44505946047397948e+00 1.28465049197033013e-02 1.62121055872564024e+00 1.17379302210602998e+00 -4.65116602991747230e-01 
318 1 1.40464332602859034e+01 1.68111577293685910e+00 1.22810959384810481e+01 -4.45045427486183076e+00 3.85601664327985191e-02 -1.10760308528051257e-01 -9.61144690845734728e-01 -3.42608559279014413e+00 
437 1 1.40845658365758784e+01 3.49495073793915267e+00 1.40454486512134444e+01 -4.44493292189016742e+00 1.67186482042229467e-03 7.95721075797722055e-02 -5.24436051482177645e-01 5.17833157226382790e-01 
320 1 1.57715994859620192e+01 1.71137687621923318e+00 1.04573848719222617e+01 -4.44265059966733755e+00 2.06396749796420144e-03 7.41745926909563535e-01 3.45921678163442547e-01 9.24409026328115863e-02 
401 1 -2.19236552466632872e-02 -3.28335770386646228e-02 1.40239184048447907e+01 -4.43588731258453528e+00 6.94392328096532074e-03 8.58260718486321683e-01 -3.49399826212609121e-01 1.19317573276109368e+00 
455 1 1.23504802548493426e+01 6.96263815368156891e+00 1.57859571134826400e+01 -4.42567654728942816e+00 7.52375316585493156e-03 -3.52701205482717717e-01 1.12420459192658173e+00 1.04149269132386824e+00 
333 1 1.04581029858698393e+01 3.51728325450877977e+00 1.05585416204201348e+01 -4.44665203144808707e+00 2.19080867204753879e-02 -2.04099494497674305e+00 -1.30337477764396659e+00 1.15602880430654231e+00 
334 1 1.05075798364551076e+01 5.25205766286823827e+00 1.23315783047382972e+01 -4.44440450416479216e+00 1.23435668458537606e-02 -1.55302920855599202e+00 -1.21624891684975722e+00 4.07404078974396511e-01 
335 1 1.23039989322891774e+01 3.44434436267434130e+00 1.22660883621637602e+01 -4.43544177624229174e+00 4.52400972142081074e-04 -2.30041294087818537e-01 2.87970912107522348e-01 1.13362026900580948e-01 
336 1 1.22892917042889511e+01 5.25306650340775416e+00 1.05419716825775094e+01 -4.42690486355957624e+00 3.38846395998515894e-04 -1.13934712364074479e-02 -2.79080952156159801e-01 1.82640556730389481e-01 
337 1 1.40821013826392409e+01 3.52131575601109459e+00 1.05756144648523982e+01 -4.43617310695713751e+00 2.94237640848092862e-02 2.59868137090239193e+00 8.81446137662633578e-01 1.46323045067895152e+00 
338 1 1.40165951732263583e+01 5.25300865183984733e+00 1.23064095018873694e+01 -4.44305076556017564e+00 4.70295637495439338e-03 -1.15641860669683894e+00 3.60096606759218729e-01 2.80740728611899082e-01 
339 1 1.58508017598999089e+01 3.40777723038236280e+00 1.23226865235794438e+01 -4.42069772816913353e+00 1.43933758101823378e-02 9.43910434898326961e-02 1.18177411376734343e+00 -1.82356243823828801e+00 
340 1 1.57992562857805101e+01 5.23412624061951082e+00 1.04993529015301128e+01 -4.44489814103666259e+00 4.72489182201169672e-02 9.70765976482520832e-01 2.68739529316412673e+00 -2.71394685693320881e+00 
453 1 1.06169261505787169e+01 6.99207138143497531e+00 1.40673098870913424e+01 -4.41828464141211441e+00 9.97824970236885905e-03 1.70067899015292756e+00 3.02249078232107948e-01 5.44088772347077199e-01 
353 1 1.05077114914882710e+01 6.95766725645653583e+00 1.05803073368657046e+01 -4.43415837429740645e+00 1.06949353973501615e-03 3.16030171607354360e-02 -1.81133516738207045e-01 -5.63664669506916516e-01 
355 1 1.22849541922660119e+01 6.96008635241969209e+00 1.22515253997999611e+01 -4.41828278438249100e+00 2.36634906872162792e-02 -1.26880358852624253e+00 9.56482763660804425e-01 -2.29196445084896672e+00 
357 1 1.40238307651254335e+01 6.98799661611303957e+00 1.05392298245797349e+01 -4.44160036758227506e+00 1.91505255163959727e-02 -2.08123403753395442e+00 -1.38827026598703340e+00 -1.88816488175864716e-01 
359 1 1.58060915677916096e+01 7.02379341868251483e+00 1.23442874650288879e+01 -4.42360580201633891e+00 1.32603264099471364e-02 -2.77636010664925048e-01 -1.52248467277025412e+00 1.40122181320843198e+00 
436 1 1.22703376200274512e+01 5.24357584604604288e+00 1.40606852329144854e+01 -4.43332104085261491e+00 6.31819855995269502e-03 -6.55685792943369372e-01 -8.56629501173478469e-01 -9.55487332908057541e-01 
440 1 1.58396947325144826e+01 5.21560696942486945e+00 1.39667836942068977e+01 -4.42243575464277594e+00 2.96795864933556072e-02 3.92481785903955604e-01 -3.06285020416082299e+00 -4.69176992995359365e-01 
435 1 1.23165001743739460e+01 3.47885267430617517e+00 1.58363642760298156e+01 -4.44461092039217132e+00 1.95127215161476700e-02 -1.33048250184441197e+00 1.84910430880338517e+00 1.10641714519035705e+00 
414 1 1.04858904216987643e+01 1.68573670186323521e+00 1.58312786299049684e+01 -4.44149206071580949e+00 4.00542109237220136e-03 5.03180537333536404e-01 -9.17124866292830299e-01 -4.71392829774561484e-01 
434 1 1.05365963022305102e+01 5.25535238868610932e+00 1.57518576805819777e+01 -4.43389536994160061e+00 5.14807646356340090e-03 -6.57789116420869346e-01 4.72321057330863825e-01 -1.01799768793451850e+00 
416 1 1.22562136112283131e+01 1.74484537223763914e+00 1.39691689205968004e+01 -4.42880460849808788e+00 9.28468534569467686e-03 -1.57841721458525756e-02 1.40927418148140537e+00 1.03219639839772248e+00 
433 1 1.04694403907856639e+01 3.46578026543487461e+00 1.40526837790702235e+01 -4.44457088713498383e+00 1.77104518375847987e-02 1.01573307162019799e+00 -1.21454958859901030e+00 -1.82052377836899315e+00 
418 1 1.40298050213113648e+01 1.66296949874604350e+00 1.57890757033965023e+01 -4.42881303926283554e+00 1.14460230967019429e-02 -5.52871154640093287e-01 5.44958909019047200e-01 1.77749367914492806e+00 
313 1 1.05398346119091073e+01 -7.69445736003553232e-02 1.04906115320187432e+01 -4.44791496474860537e+00 2.38874307926902757e-03 2.22675536941790569e-01 -8.45341028668576522e-01 -1.44765333021395992e-01 
420 1 1.58199024418037375e+01 1.66563660616528564e+00 1.40925148387051102e+01 -4.43270375866833444e+00 1.35248202132269603e-02 -1.90625964794847680e+00 -2.16553478344627709e-01 -8.74458498208463775e-01 
452 1 8.72152883780891663e+00 8.71675763433002260e+00 1.40818263082966180e+01 -4.41260995130044797e+00 6.24733594674318701e-02 -7.99123587457387652e-01 -3.88222630024428383e+00 2.19630281583496512e+00 
439 1 1.58184300871267034e+01 3.47316945132569588e+00 1.57665781980899915e+01 -4.44205479523298585e+00 7.54073572089900349e-03 -1.48001874411715417e+00 -1.25180304551866461e-01 5.21917083601258769e-01 
302 1 -5.79869331829065970e-02 1.69583795871774212e+00 1.22696368414401409e+01 -4.42898608684023198e+00 1.90975884482313292e-02 -1.56209401894650268e+00 1.55825300289267088e+00 1.18692517759105454e+00 
319 1 1.57904788914575587e+01 -3.98185939633098063e-02 1.22337729300737621e+01 -4.45290080781083564e+00 1.85416964589181607e-03 -1.59050712616588180e-01 6.79178723332768741e-01 -3.50508168436022338e-01 
21 1 -8.94568491493679119e-02 3.52721882108804463e+00 -7.16843252158696487e-02 -4.42758845171996018e+00 1.53839578616466847e-02 -6.50807386852929159e-01 1.12458979408134918e+00 1.83527006425994621e+00 
231 1 8.74465182057979007e+00 3.47143840567135165e+00 8.72378510251497730e+00 -4.44847210016889338e+00 7.99954528813417651e-03 1.55908953112055215e+00 4.44326603460607927e-01 3.37688531306104892e-02 
239 1 1.57880115196550364e+01 3.50867350996899807e+00 8.76318425914806198e+00 -4.42716135573233238e+00 1.03293962980985747e-02 -8.11391789524220086e-01 1.12735886364565974e+00 -1.21070967974456356e+00 
234 1 1.05203722875430312e+01 5.23842196387661385e+00 8.73763571534860617e+00 -4.43850933240994383e+00 3.05489866474918832e-03 6.50734068262774135e-01 -5.86892469517701798e-01 -4.86004398850154007e-01 
20 1 1.57279869774545027e+01 1.70627855242765092e+00 -3.91007675331174198e-02 -4.44443033515368313e+00 1.06141560127635971e-02 1.04975297543578927e+00 -1.43515843875954574e+00 -5.71880779525678618e-01 
12 1 8.72729282934158412e+00 1.72559796084145511e+00 -2.68209738493645489e-02 -4.42421188284173006e+00 2.34184324130343492e-02 -1.25335811754090343e+00 2.12038467816335752e+00 1.27684699716025096e+00 
259 1 1.57191894885659753e+01 6.99787265171680950e+00 8.74673716176805272e+00 -4.43922891365865535e+00 8.11926373584062958e-03 7.65892438734236070e-01 5.11364654288845588e-01 1.34929284965193741e+00 
56 1 1.22748902509271911e+01 8.73959869829275782e+00 -1.01371096872995281e-01 -4.44433916738967127e+00 8.98081607027739239e-03 5.79031398434614153e-01 1.61700182874094578e+00 -4.33919899612182358e-02 
115 1 1.22816920000108070e+01 -4.64018285382294948e-02 5.21311202431334397e+00 -4.43798305079625077e+00 2.26140578577989880e-02 -1.45125046273672087e+00 -2.02472052659711910e-01 2.29907975355880234e+00 
192 1 8.68018845570507303e+00 1.58318948162191901e+01 3.50798071033010661e+00 -4.44129718489135250e+00 1.64511632100434527e-02 -1.01116024557547135e+00 1.85879734101315308e-01 2.08572438708948216e+00 
11 1 8.72735871548837494e+00 -1.09969257764497286e-01 1.71790251227526025e+00 -4.43064622823429044e+00 1.25695384261836855e-02 -6.39071164672034286e-01 1.66609672787785290e+00 9.73202102429599814e-01 
274 1 1.04713948568264552e+01 1.22344403398332293e+01 8.78715844193235718e+00 -4.43189259106316591e+00 3.38828198808969420e-03 -7.60362898064391945e-01 -6.21315804375842773e-01 -3.86640327948762297e-01 
111 1 8.73639133294838821e+00 -1.01045830887954935e-01 5.27921629659450797e+00 -4.44663725151751166e+00 1.92543493663801385e-02 -4.41842343268797455e-01 5.19808455358575672e-01 2.42140061151091990e+00 
91 1 8.62898774069276975e+00 1.40928013181398928e+01 1.70653773274206300e+00 -4.42897939878700520e+00 1.72778807496700819e-02 -2.00226322698769321e+00 -6.98770946095487289e-01 -1.08702940243368751e+00 
58 1 1.40841383747493047e+01 8.71567338079247911e+00 1.69310398120599159e+00 -4.42167881358989412e+00 7.70865677429688478e-03 9.17950468557402810e-01 -3.10854683615992486e-02 -1.30004488922949801e+00 
273 1 1.05339576094427994e+01 1.05350446899319916e+01 7.01734762917743105e+00 -4.43705290222459503e+00 1.26182911164663732e-02 1.47683030454577824e+00 1.19939769020523479e+00 7.26535806970163400e-01 
74 1 1.04285271342902970e+01 1.23252864730996468e+01 1.65910438626017775e+00 -4.43125689870801587e+00 2.36341106829787533e-02 -2.20459844654681225e+00 2.41492451259754881e-01 -1.68807381370950771e+00 
75 1 1.22491306211122843e+01 1.05873330610965724e+01 1.74041602752397861e+00 -4.42957443322582467e+00 9.94289010038500176e-03 -1.31747490807293555e+00 -8.61118733641735523e-01 -8.89274066141974240e-01 
54 1 1.05307882570244242e+01 8.75943273439806980e+00 1.71168346558593432e+00 -4.43830196535371613e+00 2.79878420408284211e-03 -1.81405517792106896e-01 9.37432413883509286e-01 -9.07167311032096302e-02 
261 1 -7.60184173866313984e-02 1.05398481996584952e+01 7.06122424520884096e+00 -4.43366284739406069e+00 3.24541489669477688e-03 4.50737432228943136e-01 -9.09281339709224756e-01 1.91731116602326668e-01 
78 1 1.40080282498121367e+01 1.23322742051812266e+01 1.69033377003882168e+00 -4.44333221926122146e+00 5.73442395349527123e-03 -1.56876431006526651e-01 6.69922064978132670e-01 1.18802800717475865e+00 
79 1 1.57287439172259358e+01 1.05096007103006581e+01 1.65060120953251488e+00 -4.43695726929571688e+00 5.84982811668694792e-03 -4.90042570331707898e-03 1.38036774222073255e+00 1.31562823788480304e-01 
172 1 8.71820994861755771e+00 1.23126058311766879e+01 3.44769708930984908e+00 -4.44061731550057814e+00 1.90978902996824865e-02 1.10945523855898109e+00 -1.07251222665875767e+00 1.97383062430649692e+00 
300 1 1.57681746362922652e+01 1.58191193157441212e+01 7.02272634555289343e+00 -4.44504725747560592e+00 8.04418425618154929e-03 -7.27264182415269356e-01 -1.17203484424566273e+00 -8.61057432621513241e-01 
297 1 1.39539495617345271e+01 1.40543270682053159e+01 7.00908208560142487e+00 -4.44248725255469523e+00 9.78387074394258295e-03 -2.91047035065416460e-01 -6.54300566974963416e-01 -1.64407699441107091e+00 
182 1 -1.01620814216950350e-01 1.58111362327265930e+01 5.23352520029496038e+00 -4.43457938947452135e+00 5.24265795919951448e-03 -1.59019209332239564e-02 8.50587456925247953e-01 9.99714246774565440e-01 
94 1 1.04273668808580453e+01 1.58301373385703830e+01 1.72558971563509012e+00 -4.44613078570678066e+00 2.05292112341212557e-02 -2.53104081817646653e+00 -5.32092099859759915e-01 2.41545299478195807e-01 
95 1 1.21996140562878406e+01 1.40922768945193102e+01 1.66996628686883120e+00 -4.44203965318703720e+00 5.69086652108683529e-03 8.91706007427345071e-01 -9.12740751595434663e-01 4.92203613254399153e-01 
260 1 1.57744186923230671e+01 8.81459680137718138e+00 6.97557850044279970e+00 -4.44127825670982368e+00 1.90349545987959917e-02 2.41819204249141606e+00 -4.37675275668742370e-01 -4.66135543347299175e-01 
42 1 -4.08822644752326880e-02 8.74181854967791594e+00 1.66697950844641807e+00 -4.44883397031924499e+00 2.01137081795802856e-02 5.45900491853061332e-01 -1.79458377289447979e+00 -1.75855795310407048e+00 
98 1 1.39640585299787290e+01 1.57774189217524796e+01 1.77525378040484938e+00 -4.44680389273419419e+00 4.97856867998880837e-03 1.59080244147001282e-02 -9.61774491635256523e-01 8.43276452029471657e-01 
99 1 1.57550797392905775e+01 1.40515428662616948e+01 1.74842219583088632e+00 -4.44326672736922834e+00 1.78635527678058879e-03 6.05075448269197125e-01 -3.78028832585215024e-01 2.79508880773967572e-01 
76 1 1.21908453364450935e+01 1.23632470432179975e+01 -4.38858968441867628e-02 -4.43090178453629768e+00 2.09472853567253250e-03 5.94077652665526590e-01 -8.85212366825023807e-03 5.79222070660217248e-01 
296 1 1.23073746112922500e+01 1.58682228127890106e+01 6.94665419437252840e+00 -4.43847687611158381e+00 3.25295852917176567e-03 2.03364757880415387e-01 1.32356495957379527e-01 1.00514755981997128e+00 
276 1 1.22391745441579882e+01 1.22441208401441504e+01 7.03462583589705659e+00 -4.44200577303959410e+00 1.21748844725761973e-02 -5.85084402600250519e-01 1.04493050100983309e+00 -1.60233967698267632e+00 
256 1 1.22466872033383662e+01 8.75510587293604026e+00 6.98819516023801413e+00 -4.44012286211951768e+00 7.76042323654605858e-03 1.22937130551808815e+00 -2.72186082600662793e-01 -9.82492670213186647e-01 
280 1 1.57683732788457576e+01 1.22718844208071278e+01 7.03791486539728517e+00 -4.44203011194977559e+00 4.69232289994488648e-03 1.57235686553320840e-02 -1.08434320285898589e+00 -6.05182985619382108e-01 
277 1 1.40183550619470054e+01 1.05530353874605307e+01 6.96178190835482180e+00 -4.43903142491665292e+00 5.26932390271745224e-03 -6.11411646767058170e-01 9.44158481164555696e-01 -6.83143990255897338e-01 
293 1 1.05083231529027454e+01 1.40480918513705664e+01 7.02002119668574398e+00 -4.42955096848509555e+00 1.67025264038205626e-02 2.06034996529878045e+00 -7.14976827962030437e-01 -8.56520800160085582e-01 
215 1 1.23001492154162513e+01 -5.13659461075164359e-02 8.78162882097646680e+00 -4.43393974585612316e+00 4.74341536907203504e-03 1.20987377533894880e+00 4.61097351661944946e-02 -3.05231881668258320e-01 
173 1 1.04704113024100050e+01 1.04887779399749519e+01 3.48142286713147886e+00 -4.42376835520336709e+00 2.37773968056352071e-02 2.26003703642719245e+00 4.40418656534952546e-01 1.58541037122556649e+00 
174 1 1.05003881419693563e+01 1.22230879821068363e+01 5.21202738744593752e+00 -4.43347661892667055e+00 2.56316346727019717e-03 3.31015512809093138e-01 -5.86729801285739372e-01 6.23417197120935240e-01 
175 1 1.22823106088763705e+01 1.05470685042955381e+01 5.17805843823907708e+00 -4.44682950065052651e+00 5.27288292468732541e-03 -1.03191305321641402e+00 8.15355536970081229e-01 -5.88705793251503226e-02 
176 1 1.21784991099822282e+01 1.22940569195377627e+01 3.42236993093519315e+00 -4.43530140026121877e+00 3.57880137243871219e-03 6.04329114141896259e-02 8.95000277426023394e-01 -6.09605565953220019e-01 
177 1 1.40224328686796564e+01 1.05426039831347875e+01 3.40235511848641359e+00 -4.44031022181605284e+00 5.49481420205298263e-03 7.30061762398166225e-01 5.02412751455398765e-01 1.01027301747279608e+00 
178 1 1.40243745573006358e+01 1.23106257649762263e+01 5.24507147343658886e+00 -4.43528859933008679e+00 3.85087282083090062e-03 -2.96217741242320205e-02 -7.44913869727839711e-02 1.12218351181027143e+00 
179 1 1.57251965099458140e+01 1.05607231944898849e+01 5.22591662922210531e+00 -4.43878757076816388e+00 1.12934179795776968e-02 -2.74556277667522663e-01 8.89751599799303017e-02 1.90490782940786474e+00 
180 1 1.57538752668987243e+01 1.22923348834045605e+01 3.46502245567353961e+00 -4.42960600971359053e+00 3.26914162066630695e-02 -2.71831967806527797e-01 2.81754941410638571e+00 -1.65308343205226826e+00 
252 1 8.73544091615789497e+00 8.75942405458899920e+00 7.00526637288978726e+00 -4.43507110182667574e+00 1.60368077080536540e-02 4.63477877633237945e-01 -2.21873706194821896e+00 3.65300435219334363e-01 
161 1 -1.18982734125051337e-01 1.06141930229784673e+01 3.43953212923185880e+00 -4.42000132993747297e+00 8.53219954940542119e-03 5.31879568864350727e-01 -1.50012935426479599e+00 5.20689813787541533e-01 
193 1 1.04433804393418743e+01 1.40304806166383980e+01 3.48889107341668536e+00 -4.44003800867002063e+00 4.20140653994913668e-02 1.19690303819753457e-01 -2.04352180012673834e+00 3.10146182124445469e+00 
194 1 1.04510116296803357e+01 1.58105987687104168e+01 5.27759426813575772e+00 -4.44426782823873356e+00 8.17081398221076137e-03 -2.42713200269275065e-01 4.84636314590633832e-01 1.54655680270989704e+00 
195 1 1.22530000125972691e+01 1.40251238164358210e+01 5.21956037889104252e+00 -4.44184902214281063e+00 5.98179465003340245e-03 7.41081808643536566e-01 9.51345065161982251e-01 7.15446413033597794e-01 
196 1 1.21542062007479892e+01 1.58015113092368615e+01 3.49525329795772466e+00 -4.43534037066805986e+00 1.89577642348516505e-02 8.85477165069556316e-01 7.28277705273755571e-01 -2.21735546162072827e+00 
197 1 1.39634369568328136e+01 1.40257147916047487e+01 3.48725481447912999e+00 -4.43427104695927898e+00 1.40041667766931596e-02 -1.10843742438541892e+00 1.45758957023714575e+00 1.11792299881779478e+00 
198 1 1.40859649921579457e+01 1.58302741449104438e+01 5.22050055315977257e+00 -4.42963252713560873e+00 1.88748902740711148e-02 1.59322153821668633e+00 2.64376097112506481e-01 1.89621583454886089e+00 
199 1 1.57509239249736535e+01 1.40567671098147144e+01 5.19986018074490097e+00 -4.43230330539052542e+00 3.48581429575170604e-02 8.04767895201622174e-01 -1.86434557457173389e+00 2.70811666831265052e+00 
200 1 1.57888916433785802e+01 1.58465168749825995e+01 3.52200515632659483e+00 -4.41821309813642227e+00 8.50009311253905296e-03 1.23840119429287498e+00 -2.54663221441291353e-02 1.12230249816627725e+00 
97 1 1.40053884147484169e+01 1.40747012246790923e+01 -1.03329226961519999e-01 -4.44038050361252701e+00 4.96387345853244698e-03 -8.02279519977266153e-02 -6.18771232053617393e-01 -1.11455549838026946e+00 
254 1 1.05189511735869115e+01 8.74777506014526374e+00 8.74828433713099862e+00 -4.44068079155613926e+00 1.25547779840544434e-02 -8.84285952516501578e-02 -2.48290003131599851e-01 2.01422280830990630e+00 
294 1 1.05512986217639710e+01 1.57869937336659909e+01 8.66916063573557771e+00 -4.41063355597953688e+00 1.27658989991031330e-02 1.91470486182302724e-01 2.03344663059894959e+00 -1.56163775152039996e-01 
275 1 1.23014721167958232e+01 1.04801703405083764e+01 8.79579912037059941e+00 -4.44012702906127199e+00 2.59472794067653230e-02 -1.86387776642982050e+00 1.39176195500070943e+00 -1.76562373640288794e+00 
298 1 1.40460784938938446e+01 1.57956811254578291e+01 8.74049018019882418e+00 -4.44310175406204610e+00 7.81914660694462728e-03 9.09522731834756515e-01 5.79411244662032199e-01 1.18620545840081149e+00 
93 1 1.04440428376258030e+01 1.40509298919539098e+01 -6.45867889719800858e-02 -4.43745407716990847e+00 1.60021917703566836e-02 1.05352774346946121e+00 -1.85873176470392676e+00 -8.33587487401361127e-01 
100 1 1.57415105510578339e+01 1.58270205928271892e+01 -3.98520210558673676e-02 -4.44517432796587109e+00 6.63111240052864301e-03 4.98538998565545566e-01 7.70074926984275265e-01 -1.15671405763960800e+00 
219 1 1.58318239636180760e+01 -9.53066434343270430e-02 8.78227927338670611e+00 -4.44134547562929782e+00 2.34638237856680696e-03 -7.53956037050544148e-01 -3.59857660584139427e-01 2.70688572461862231e-01 
442 1 -1.01201189033588435e-01 8.78193151795553995e+00 1.57756209806901424e+01 -4.44654413361551359e+00 1.53242371875830924e-02 1.76945929484646447e+00 1.34809992557702474e+00 2.97455547076585891e-01 
461 1 -2.15931022675057704e-02 1.05354722839506056e+01 1.40144841842122734e+01 -4.44091303240830015e+00 4.09124035474616853e-03 -6.87712986250857528e-01 8.11149339601800912e-01 4.62401268584353820e-01 
362 1 -4.75363247275062406e-02 1.22907328889268825e+01 1.22839465912790473e+01 -4.44064252108922375e+00 2.86112594126038434e-02 1.60286531551792266e+00 -2.61429734168887462e+00 1.87083262026644312e-02 
392 1 8.75153649751011642e+00 1.58096745676512747e+01 1.04490155964366771e+01 -4.44424879904757120e+00 1.00615024542314978e-02 -1.73474825075731170e-01 1.80591092472085646e+00 1.25108881044493803e-01 
279 1 1.58112492519460641e+01 1.05174139194293836e+01 8.75866817735068537e+00 -4.43592997420387203e+00 1.55599153748435786e-02 2.59910107302019269e-03 1.43960575835793292e+00 -1.74408476940725499e+00 
301 1 3.22894682667040911e-03 -7.46255873283132587e-02 1.04557939951274523e+01 -4.43784092766140859e+00 1.40918453754174805e-02 4.47311931525620626e-02 -8.24013302521271473e-01 -1.98765502673643812e+00 
80 1 1.57700983390213860e+01 1.23247429275860867e+01 -6.23876631072661780e-02 -4.43759983452528672e+00 5.24079638439514592e-02 1.15733400827440458e+00 -6.53143290803907872e-01 -3.93187840715408221e+00 
381 1 -8.77231765332808777e-02 1.41094568353512315e+01 1.04664780291651454e+01 -4.42797014695967661e+00 7.86779402248571728e-03 -8.02052489264289736e-01 -1.38564048442387810e+00 -1.50778924550646509e-01 
358 1 1.40133514547771174e+01 8.66902306910697362e+00 1.22850661549191518e+01 -4.42968785984258506e+00 2.01093371078101060e-02 1.11701607477893439e+00 2.19778592222215297e+00 7.29136314105260031e-01 
360 1 1.58031921369104911e+01 8.73021169625561377e+00 1.05302822402787015e+01 -4.43711301596359764e+00 5.39774072142320746e-03 3.82540197623861378e-01 -1.27214081752597652e+00 9.73370825501601589e-02 
354 1 1.04443406718621539e+01 8.72348524066689279e+00 1.23453205464361577e+01 -4.44035571287585729e+00 2.47407209229222672e-02 1.41830266696077817e-01 2.23748939529854285e+00 -1.76221937968314557e+00 
391 1 8.73029161452048541e+00 1.40131208947254127e+01 1.22638618604218372e+01 -4.44415684092278251e+00 1.35108388803135745e-02 1.55877164424294579e+00 1.19475591785752244e+00 7.63932411764451258e-01 
480 1 1.57886995564669874e+01 1.23183177937521009e+01 1.40024911817419042e+01 -4.44815330125650910e+00 4.05270201331376506e-03 4.53916847408981639e-01 8.15073968199137688e-01 -6.79466188910902491e-01 
356 1 1.22398776908591955e+01 8.73061581186425606e+00 1.05548694711775202e+01 -4.44067580549367769e+00 1.00884284225848109e-02 4.28540299700062521e-01 1.28885591051904425e+00 1.21289480882496425e+00 
472 1 8.69588634852884823e+00 1.22713427568216087e+01 1.40852282348340303e+01 -4.43593758727568677e+00 1.30663500332586450e-02 9.47646491294131116e-02 -2.06740322546492772e+00 1.07565966391049192e-01 
495 1 1.22389636377941091e+01 1.41101245307198546e+01 1.58085805123187573e+01 -4.44653452711654396e+00 3.02803531391574489e-02 3.00535164383613829e+00 4.16399015948174245e-01 -8.64382105216506047e-01 
494 1 1.04785578530051779e+01 1.58187695270165793e+01 1.58292092641013991e+01 -4.42636829251037955e+00 1.92471476476587106e-02 1.05412377996055229e+00 1.89092157372413139e+00 1.28042101401933528e+00 
500 1 1.57878907403920792e+01 1.58110340383309360e+01 1.40011026557589702e+01 -4.44013290486768852e+00 1.76238965649922821e-02 1.52913588362201236e+00 4.21091128919744762e-01 1.81028382765398521e+00 
460 1 1.57444140767461427e+01 8.78929919054794517e+00 1.40523294013724556e+01 -4.43411166616417063e+00 1.12819608749625874e-02 -9.11535487626318197e-01 1.62888280990218370e+00 4.73338822423732819e-01 
373 1 1.04603488788723062e+01 1.05276577509348659e+01 1.05301192940342734e+01 -4.43285111358164841e+00 1.20764878683405578e-02 1.67636470120940850e+00 -3.54743589229903511e-01 1.01651998761569384e+00 
374 1 1.04987434132784436e+01 1.22863391424725599e+01 1.22599695642762363e+01 -4.44488347531843786e+00 9.21018150963989150e-04 -3.18251425367589935e-01 3.18352953016324935e-01 -3.16372925862802579e-01 
375 1 1.22704475326643259e+01 1.05308982786636101e+01 1.22517352499555816e+01 -4.44954752900828510e+00 1.32727808883270210e-02 -1.55907547129575286e+00 4.14503626955463889e-01 -1.32666043704912262e+00 
376 1 1.22590690144754895e+01 1.23787917467379636e+01 1.04674111721221390e+01 -4.41260791304878719e+00 1.50323599756786927e-02 -1.01394396646985838e-01 7.99786914806195237e-01 2.07146420593839453e+00 
377 1 1.40763257587713841e+01 1.04629865191317144e+01 1.04985035667015776e+01 -4.43133080270239521e+00 2.43759564774525227e-02 -2.72765779730885161e+00 2.47751373278168263e-01 -7.14493901408072452e-01 
378 1 1.40435264619821680e+01 1.22783251673063845e+01 1.22175135214056976e+01 -4.44233027663960289e+00 1.20328057511039643e-02 1.23026662821669394e-01 8.53818164741243391e-01 -1.79188611725970759e+00 
379 1 1.58269624351106497e+01 1.05149730476178025e+01 1.22780991402961206e+01 -4.43193182907840910e+00 2.92078989271153146e-02 1.80181582346110536e-01 3.06861181669656746e+00 -3.89024542752006930e-01 
380 1 1.58737742984896499e+01 1.22791497946188279e+01 1.05495916820921192e+01 -4.43624231776914435e+00 1.67999641818170307e-02 3.13190598268622167e-01 1.77923961023260002e+00 -1.50269959476101200e+00 
411 1 8.79211331937765017e+00 -8.73052758510439730e-02 1.57353890828744234e+01 -4.43840465048878396e+00 1.78597678829071800e-02 1.54413955276979831e+00 1.71655101277491084e+00 -7.34380512421922926e-01 
499 1 1.57453903445422583e+01 1.41152649588020846e+01 1.57751512978585584e+01 -4.43659981466181819e+00 1.95454486981705977e-02 8.11149483559753026e-01 -1.42177213310059458e+00 1.93517099151540939e+00 
393 1 1.04506828852422302e+01 1.40411939922047626e+01 1.04848205189604844e+01 -4.43998835907492939e+00 3.13390553598373103e-02 -2.16307500087992421e+00 1.35086513796617336e+00 -1.94857178692699540e+00 
394 1 1.04820750544985231e+01 1.58066179532849542e+01 1.22363999327449857e+01 -4.44814632774804064e+00 2.77239231913897696e-02 2.40928327413762577e+00 1.48505377520507653e+00 1.04994929857683861e+00 
395 1 1.22489321698197990e+01 1.40470875390900058e+01 1.22147611673619014e+01 -4.44442952875791253e+00 7.35603159011936122e-03 1.12392908566124405e+00 5.34854975709525671e-01 -9.31948073757905004e-01 
396 1 1.22808564627335315e+01 1.58107704529182200e+01 1.04674524665252058e+01 -4.44227876099120156e+00 1.31154670596525559e-02 -7.18986401248223328e-01 -1.09270611758897473e+00 -1.61242140078940377e+00 
397 1 1.40095721622582303e+01 1.40664049127915316e+01 1.04902155299626383e+01 -4.43788613671491738e+00 2.82425507827628493e-02 9.20437289441879525e-01 9.29501541183081148e-01 -2.75167423168651348e+00 
398 1 1.40182360488001674e+01 1.58571515064741355e+01 1.22800501589318092e+01 -4.43660061859607513e+00 8.84439478955929316e-03 -1.65077402353739489e+00 -1.47320619279179332e-01 4.00321540403099696e-01 
399 1 1.57376532821419879e+01 1.40816308736353673e+01 1.23093127666462738e+01 -4.43255910289920418e+00 1.28359260349436167e-02 2.91059498691308316e-01 -1.60953157579006056e+00 1.24244217090294562e+00 
400 1 1.57967044981783680e+01 1.58019571026573971e+01 1.05584315285786730e+01 -4.43464962899770399e+00 1.16772667670270013e-02 -2.48059161553117136e-01 4.37160287576595530e-01 -1.89354013784055164e+00 
498 1 1.40338874085337526e+01 1.58674309315581059e+01 1.57813492588171602e+01 -4.44052379212046233e+00 2.40265595209827008e-02 2.54814108997663924e+00 -8.25558551862599188e-01 8.50051782265767719e-01 
478 1 1.40229886775185744e+01 1.23704720183801626e+01 1.57656711443284081e+01 -4.43742982320232837e+00 9.81642537670816481e-03 -5.78084021827885763e-01 -1.18437229010293676e+00 -1.22048683639521927e+00 
479 1 1.57945062129881748e+01 1.05235763513709006e+01 1.58303137014445223e+01 -4.43570626749444052e+00 1.02843836160835828e-02 8.43990799439070516e-01 1.55398431819878780e+00 -5.03120134806873454e-01 
496 1 1.21882053453821602e+01 1.58559286930695276e+01 1.40581867725634808e+01 -4.43815802132204773e+00 1.32597867317173993e-02 2.93141553258842114e-01 1.97001650669843364e+00 -6.25611310849644608e-01 
315 1 1.22849826160033562e+01 -1.09383755095855406e-01 1.22241578413645957e+01 -4.43366798666424167e+00 1.21960615789888146e-02 1.92563481480357135e+00 -1.01340922992695634e-01 -5.38810833921144705e-01 
493 1 1.04999528598725487e+01 1.40780944002645985e+01 1.40150467532561880e+01 -4.44135080646722624e+00 2.34892096102554543e-02 1.08623123027652069e+00 2.29949231081472050e+00 -1.11936419618199756e+00 
497 1 1.40076489282082886e+01 1.40998893976214124e+01 1.40440603352153452e+01 -4.44279548156756832e+00 2.82027998698752454e-02 1.18591328870527457e+00 -1.73453241582656137e+00 2.20336798037353843e+00 
473 1 1.04581928041356846e+01 1.05045421938721155e+01 1.40073261804748146e+01 -4.44259410387965215e+00 2.11274703382053897e-02 5.58624599438935828e-03 -1.58830153827105125e+00 2.10274565181472273e+00 
474 1 1.05403694121027787e+01 1.22880453826565628e+01 1.57307831664614088e+01 -4.43639982098193553e+00 1.00210839989097068e-02 1.24800088297108869e+00 -1.06747352661360617e+00 7.72508356545821506e-01 
475 1 1.22580893690063597e+01 1.05991032091499111e+01 1.57423040896897266e+01 -4.43054810972625912e+00 4.13319881416029586e-03 1.16990214763322845e-01 -6.77990864900594126e-01 -9.40829478844519840e-01 
476 1 1.23081409922778899e+01 1.23116212418210065e+01 1.39978838170044551e+01 -4.43221290455165473e+00 1.08823626918113352e-02 2.86619805663886340e-01 -1.02756482873535049e+00 1.56167335595288836e+00 
477 1 1.40599111727284800e+01 1.05657949064142294e+01 1.40077446621315058e+01 -4.43735563254205356e+00 1.74222365228335232e-03 -2.06433341080235255e-01 -4.60086974310491115e-01 5.64222634368627296e-01 
456 1 1.23001731168323651e+01 8.78520738545686264e+00 1.40222682910629111e+01 -4.45079956388266140e+00 2.49760516927427616e-02 -7.50384193549873069e-01 2.45669935446553289e+00 1.26917027369033697e+00 
372 1 8.72705600046053753e+00 1.22213225861266892e+01 1.05560379949573164e+01 -4.42319930930666061e+00 1.25637138576572514e-02 6.13767672143713860e-01 -1.93287593363251986e+00 1.29529983752749545e-01 
491 1 8.71870344589524926e+00 1.40865036049839105e+01 1.57826178129579429e+01 -4.44340461254097985e+00 1.39289505187499170e-02 2.04784207572285970e+00 5.51551681578887121e-01 2.83485214439798017e-01 
72 1 8.77102090695703396e+00 1.22546451006516488e+01 -1.01004049705828436e-01 -4.43542142359324565e+00 4.44801406233019669e-02 -3.78295932843763039e+00 -2.85618170674948435e-01 4.77047434008411930e-01 
413 1 1.05766018982941610e+01 -4.08065974630460460e-02 1.40017874626316932e+01 -4.43133401557227291e+00 1.58317778970837111e-02 7.45804599206738361e-01 2.89343993102845198e-01 -2.13628549856233585e+00 
492 1 8.76785917662255798e+00 1.58378279561620214e+01 1.40270510730730358e+01 -4.44578627190644760e+00 2.96691148349916955e-03 -8.52458353915447886e-01 -9.52617201962068227e-02 -4.89303392517468905e-01 
73 1 1.05110742464092102e+01 1.05630462168672778e+01 -7.68033658849809342e-02 -4.43645857071975680e+00 9.63984853384283226e-03 -1.12570741630931459e+00 1.37040867413593448e+00 1.52419753054583107e-01 
417 1 1.40301247108360556e+01 -8.65246392676155551e-02 1.40188303514373676e+01 -4.44505193474672300e+00 4.15637379486877429e-02 -2.67289401332515730e+00 -2.54177138467673336e+00 -2.37471490133978502e-01 
342 1 -1.17840923278151877e-01 8.79644950111488377e+00 1.22834521404550134e+01 -4.42429167794853928e+00 1.17425832393996017e-02 3.63677982604847183e-01 8.42106526603628724e-01 -1.73729679499104517e+00 
77 1 1.40106069376162026e+01 1.05994189060205404e+01 -8.62519017648963882e-02 -4.44450183151929412e+00 1.51619166521492731e-02 -2.05950094373000514e+00 -6.85151927615702316e-01 -5.22024770461596566e-01 
13 1 1.04805979349030842e+01 -1.12814560661853136e-01 -1.23185249879185221e-02 -4.44072514525776896e+00 7.42703182505488526e-04 -4.46734565949182705e-01 -1.91214891240766099e-01 8.93315475434098005e-02 
278 1 1.40586247666990687e+01 1.22798596952204679e+01 8.80274341406586203e+00 -4.45036920869219887e+00 1.11123932314431545e-02 9.61213480777703189e-01 1.39883206674043925e+00 8.78526624429891601e-01 
271 1 8.71179563701319459e+00 1.04568516970363987e+01 8.74428716591978095e+00 -4.44284268043948494e+00 1.33132739917461457e-02 -1.33205770294517123e+00 1.23455514510092113e+00 1.03796089657370949e+00 
299 1 1.58176606569677585e+01 1.40529414422251637e+01 8.77044879306457048e+00 -4.43463690478532424e+00 4.52890115035563517e-03 -9.07545838794861170e-01 6.62176847227073484e-01 -4.75880272649542357e-01 
262 1 -7.56567458537276138e-02 1.22903532989924038e+01 8.72872977931920779e+00 -4.43224149035915360e+00 5.21668881575423644e-03 1.13745950128269113e+00 3.57458077963579923e-01 5.41345008654685156e-01 
96 1 1.22280363004972141e+01 1.58734114722475059e+01 -6.01999229504173172e-02 -4.44721488231698814e+00 1.46359038061489224e-02 6.15710618546812971e-01 2.09620626299034285e+00 1.93428602346713718e-01 
295 1 1.22209283519366316e+01 1.40574418693577918e+01 8.73963016327492603e+00 -4.42082023564726079e+00 4.82237792992505371e-03 7.50068241597856455e-01 9.88142275946687576e-01 -2.14507360384113582e-01 
